Cl O  Li
 1.0000000000000000
    11.7780000000000005    0.0000000000000000    0.0000000000000000
     0.0000000000000000   11.7780000000000005    0.0000000000000000
     0.0000000000000000    0.0000000000000000   11.7780000000000005
 Cl  O   Li 
  27  27  80
Direct
  0.6420377099936595  0.6702015516141451  0.6766020802676997
  0.6766164605599629  0.6806258969056017  0.3308256676069872
  0.6576994503412329  0.6515709351852885  0.9882054317159416
  0.6760555352053268  0.3367568733631115  0.6715973548624734
  0.6537139451310963  0.3456789670335554  0.3037867780878646
  0.6920573529963462  0.3615334179324149  0.9834040202438969
  0.6696199339568017  0.0032708487545982  0.6560335082361205
  0.6792589432663575  0.0005680190654818  0.3319171745015139
  0.6640097087606022  0.9932746486923005  0.0101668125515443
  0.2909616762017612  0.6676250601259428  0.6506742925815119
  0.3255475926856229  0.6991891860977379  0.3479409556274226
  0.3182284580934025  0.6540237032607326  0.0056562413060360
  0.3327344007154741  0.3423991225185690  0.6770006591285004
  0.3192577389128605  0.3380477911442683  0.3631510407417720
  0.3314469646795716  0.3612921248892080  0.0039713122406790
  0.3242692658669557  0.0247557631265327  0.6669291846700289
  0.3543766053330940  0.9925339807692478  0.3239119539098462
  0.3341483739001254  0.9590824414335257  0.9927011391227433
  0.9764724288234851  0.6566961451704785  0.6717982434665661
  0.9971267505347658  0.6669519092149696  0.3280852506939620
  0.0220710600006982  0.6448266731714265  0.9826774285918107
  0.9941647655130628  0.3135250293671364  0.6717434262215155
  0.9847745618205946  0.3493035448141301  0.3279229244428314
  0.0094152525361880  0.3255608964010172  0.0290574699313298
  0.0023140683017171  0.9925114240700693  0.6828225015624251
  0.0024322784240024  0.9869004271207427  0.3329923050477223
  0.0086040204413739  0.9989624078766156  0.0192268014259771
  0.8434841220644379  0.8382113875036795  0.8327014324379186
  0.8154985014767127  0.8325661019424769  0.5086009487413012
  0.8513206399529103  0.8148257191926600  0.1525114143315737
  0.8499081849711315  0.5173644732910011  0.8203784833621954
  0.8348699604219522  0.5186681034908771  0.4982763190145125
  0.8345783035287874  0.4875963205892901  0.1491019254126260
  0.8487169422692323  0.1681523371657037  0.8394752892864424
  0.8577853502111779  0.1638735455246523  0.4876518138563421
  0.8331716784460392  0.1543341910516491  0.1554925271280093
  0.4984523575486422  0.8283436356279963  0.8151205622032418
  0.4920295092042465  0.8338707037921913  0.5094630045750269
  0.5108441318212532  0.8311891121798002  0.1503067610909106
  0.4762589845601802  0.5111085867771733  0.8178965657915992
  0.5126684043928812  0.5010138332079900  0.4893699336831230
  0.4920682132561435  0.5034256705339906  0.1749295521946370
  0.5007457345651759  0.1649431599337572  0.8577996335891481
  0.5144405722419239  0.1597525558901713  0.5045663347289145
  0.5093070627476974  0.1641330772450345  0.1760405325713420
  0.1806466668447992  0.8285306782218914  0.8297009777368870
  0.1697242093122193  0.8370400636234678  0.4959157362174884
  0.1599704036227955  0.8324784915153797  0.1620120748740325
  0.1581901285704134  0.4956216219442851  0.8276174366000417
  0.1504761802605162  0.5092020478525596  0.5073725809184926
  0.1579021457282001  0.5041718571244848  0.1931046267909157
  0.1792203456101180  0.1607858144011554  0.8458311747628074
  0.1551788136581670  0.1710764060195422  0.5025020646471977
  0.1731271497161102  0.1500517152382937  0.1654583346665528
  0.6749178547007703  0.8263465713267698  0.8330152753357273
  0.8478920115564165  0.6659768181167082  0.8338688697187767
  0.8286224139025709  0.8163186591693875  0.6678394181415761
  0.6455811145273165  0.8319440841042504  0.5209883910750495
  0.7951179841742773  0.6790764392966059  0.5126749145721440
  0.8274412115823354  0.7970440413247102  0.3241343605093188
  0.6661732085820672  0.8299206233157470  0.1721768277169918
  0.8375625640658453  0.6480408908369097  0.1248951320173243
  0.8510029104557479  0.8616224806521374  0.9965704670209825
  0.6613186030768765  0.5018596543923319  0.8603107006548969
  0.8377577037417275  0.3392467260740549  0.8281040712274489
  0.8008844020820023  0.5333651170051324  0.6708379295429308
  0.6733808261126245  0.5233521439640159  0.4991840828760535
  0.8459121130690022  0.3273608777266847  0.5225527878003106
  0.8488008280386157  0.5353133963873883  0.3147322515759920
  0.6663080249971477  0.4897435047905519  0.1532401213463290
  0.8118676079721882  0.3227638606421993  0.1930398703777262
  0.8455642624268489  0.4544199441376919  0.9966268824908489
  0.6896902520483226  0.1688870765065391  0.8549373151068115
  0.8537824767601796  0.9857384705522546  0.8449992805594826
  0.8510532743057059  0.1858913737756403  0.6529247550635154
  0.6722374371652672  0.1418222864464113  0.5171671756584251
  0.8128478407175111  0.9963231690636918  0.5161858902924437
  0.8292201404948372  0.1446750706147084  0.3267096981633380
  0.6594510516020291  0.1594477817241879  0.1927175862719464
  0.8258775031090431  0.9835084823011562  0.1986316139842910
  0.8502446996985032  0.1527119710396495  0.9903978507717902
  0.3478460253128638  0.7930099131372427  0.8392684898124994
  0.5107743349745270  0.6697144716472286  0.8112767154424643
  0.4725994273854224  0.8097882006053873  0.6660639709743286
  0.3200591678452098  0.8528569035764985  0.5126511901219225
  0.4669060856426283  0.6664533313916318  0.5004473491222254
  0.4830600071187698  0.8484182451729700  0.3382030809468077
  0.3454336616765341  0.8119389475227232  0.1301783565574868
  0.5023253133191624  0.6638889450409997  0.2098335018162357
  0.5225639697451889  0.8064735791232673  0.9976422578371636
  0.3185867539713187  0.4922045318896223  0.8206128129148939
  0.4844959841237204  0.3376967623974352  0.8375703697782260
  0.4726748921895396  0.4948547877947245  0.6424507341740698
  0.2936541381467196  0.5184961214694773  0.4865649830266628
  0.5118738782229255  0.3230636551027609  0.5090609439689719
  0.4933282406695205  0.4744615175881596  0.3269174490444146
  0.3128399512447065  0.4865119998550267  0.1666183125106304
  0.5359022524166480  0.3246990632370463  0.1597715515601678
  0.4694917268334756  0.5232859098333638  0.0110867214034810
  0.3355099589643220  0.1595234287126496  0.8255868503793898
  0.4813880406593139  0.9952695818162445  0.8492410179290919
  0.5274155793300446  0.1515378941515624  0.6557629847269412
  0.3407576373145624  0.1759636630078448  0.5264708038320872
  0.4994819824940847  0.0137690185584848  0.4929456860593173
  0.5313589392284400  0.1502917937192025  0.3305926538301118
  0.3194614817383536  0.1980613284872227  0.1892750713798450
  0.4978637401736112  0.9966640631737662  0.1464317405644839
  0.5334668525820658  0.1758832994691257  0.0025617133780542
  0.0134325729526876  0.8432458291997971  0.8227242080137739
  0.1627479152926727  0.7994524373908664  0.0079256874068790
  0.1781504781672010  0.8392108913041311  0.6704315369980129
  0.0011423662941025  0.8074816658306250  0.4890248360488452
  0.1764270547517189  0.6822983491899768  0.4647565858012637
  0.1793836435110869  0.8523059781181163  0.3308874888279565
  0.1871665182313969  0.9974264158516024  0.1532552628896443
  0.1806572335367919  0.6809492133893348  0.2119747346622371
  0.0120052952501967  0.8239985794922352  0.1898434662926139
  0.0019531490957540  0.5032135674713460  0.8145092325132379
  0.1685421163129652  0.3446682487745520  0.8417095980898824
  0.1554437704234804  0.4879497987034243  0.6713770737470224
  0.9912324154951392  0.5180992429958939  0.5056602909907424
  0.1689375575544959  0.3345113703438249  0.5178791925629349
  0.1296125201972803  0.4824373457722152  0.3509245683979216
  0.0005691389099610  0.5020632555188903  0.1676779573875390
  0.1417389227291261  0.4948208205357897  0.9950914711050545
  0.1622408861400113  0.6526246084642320  0.8321430477856685
  0.0108481690971813  0.1752664030352558  0.8554943943475037
  0.1981644405680938  0.9938073443296911  0.8667464233596518
  0.1831046372954196  0.1785613890935575  0.6839590079900935
  0.0110621446100352  0.1496103129351353  0.4753629534957835
  0.1758623237685490  0.0016435993792911  0.5021114614121541
  0.1514990846279096  0.2899632495229039  0.2309901244271067
  0.0115694014931275  0.1505961529097342  0.1650943910739507
  0.1654546888300428  0.1795104885586412  0.0245095667097706
