Cl O  Li
 1.0000000000000000
    11.7780000000000005    0.0000000000000000    0.0000000000000000
     0.0000000000000000   11.7780000000000005    0.0000000000000000
     0.0000000000000000    0.0000000000000000   11.7780000000000005
 Cl  O   Li 
  27  27  80
Direct
  0.6652608688734687  0.6637044199270662  0.6649343798333491
  0.6576328913315663  0.6476299713106252  0.3389278632797419
  0.6790751789949321  0.6699746382760107  0.0065304524404064
  0.6586173345595224  0.3394741602489053  0.6718510287227103
  0.6660158407979188  0.3269181569108968  0.3402537402123768
  0.6746672490175436  0.2985341801321257  0.9898889452460166
  0.6764007937855093  0.9995055128022746  0.6510344025844653
  0.6673614138824864  0.0230424178413175  0.3174461023416906
  0.6825468028967759  0.0087902339732053  0.9987522800372021
  0.3125157835716297  0.6778645159347764  0.6883759180100775
  0.3334133805297428  0.6560405318265525  0.3473975122514681
  0.3176631188333486  0.6571632327294333  0.0022903960851132
  0.3307068499048324  0.3128078782001106  0.6742301943228941
  0.3555038396061526  0.3435177822650023  0.3404215927219634
  0.3339838806838284  0.3367744311728638  0.0219558177732032
  0.3244682101756365  0.0062565014037386  0.6765170531884284
  0.3524899032636129  0.0200457472609457  0.3179894772711204
  0.3602175558847728  0.9899995774537106  0.0121060091577197
  0.0050031762366380  0.6603956688293871  0.6617281782790326
  0.9692230799609034  0.6898528126119848  0.3438286019095526
  0.9908374761625750  0.6638808958289688  0.0177316928220843
  0.0068958742117307  0.3443080979523248  0.6850314992662463
  0.0186462994954561  0.3441010150805121  0.3267590624023427
  0.9833350565285688  0.3485442078499531  0.9833941733057039
  0.0060415156665689  0.0032864575714128  0.6845951475179772
  0.9886261871101899  0.0016374663448752  0.3403509659243334
  0.0087078366884004  0.0061275509450070  0.9884854843510885
  0.8439776787012088  0.8181678376526706  0.8320558038872906
  0.7992404910158957  0.8464402568843685  0.4937790705043995
  0.8392441245717209  0.8329710039117729  0.1689624707555163
  0.8196964731224483  0.5090746476520430  0.8347689741194304
  0.8269642519721676  0.5097235073170557  0.4995068653310477
  0.8415788371917972  0.4829235019592490  0.1824359645748025
  0.8340628018083623  0.1747090680239447  0.8144465938656600
  0.8280529046452938  0.1851231300212778  0.4993018067297317
  0.8349053031890897  0.1724713179606604  0.1514211547663451
  0.4932573902064011  0.8129400376387079  0.8239776690723317
  0.4939225250062074  0.8249744067124212  0.5036868219650976
  0.5075279708978210  0.8058593013828840  0.1678138389475727
  0.5086755703278113  0.4908265778616532  0.8396112720600011
  0.4987308556878436  0.4877907793977492  0.5004936567127800
  0.5056810669820402  0.4867394137871720  0.1535914257726217
  0.5128356081401738  0.1760005930862505  0.8044632156592053
  0.5072995927003832  0.1541945035292175  0.5133356287438575
  0.5264683007126729  0.1575429809353946  0.1564359509172924
  0.1458651137430487  0.8387145880482954  0.8295533197284477
  0.1467375540844223  0.8523195481149900  0.5048251502362131
  0.1632758237997727  0.8373826180614654  0.1639499013021155
  0.1856481524214957  0.5080659536635362  0.8424826592741631
  0.1652241031820285  0.5059066238392943  0.4882884796945549
  0.1576216516910897  0.4941459361367351  0.1552909627962428
  0.1753217615793747  0.1871124211237968  0.8469815599676732
  0.1602273027957969  0.1383063687692928  0.4682341533399579
  0.1520993911693241  0.1693950138441175  0.1674976580173403
  0.6648243956689699  0.8238987093704739  0.8344869527538299
  0.8643916369522499  0.6490320620274608  0.8160438242583777
  0.8573902520998968  0.8310567727592718  0.6565618756027597
  0.6425262869250085  0.8124224721581111  0.5482504082126135
  0.8225975766275018  0.6641410145877950  0.5108057764478992
  0.7765699569859511  0.8325521418605953  0.3490686285173155
  0.6896893198881592  0.8392448659476114  0.1333064034308681
  0.8306242949718444  0.6787698101863114  0.1823532731250122
  0.8540795172171306  0.8211325842221404  0.0073923953577933
  0.6522328258983343  0.4952123218343977  0.8147146072794234
  0.8066846243112875  0.3352731714443946  0.8483913429123964
  0.8253466169328429  0.5192289957446493  0.6799619162343058
  0.6529663405555192  0.5118789505419441  0.5036473082050019
  0.7965382518444383  0.3300630433118681  0.5064904366030298
  0.8540615416951201  0.4951569782790180  0.3401411907727602
  0.6607267458733158  0.5046981343527633  0.2008953074769330
  0.8505338859859274  0.3297210225687454  0.1712230444686508
  0.8517909579643793  0.5149069353217308  0.0265419468127545
  0.6745528777344799  0.2035519874097281  0.8030403964124833
  0.8200180892189644  0.9746067791539909  0.8249455132822149
  0.8723151175012607  0.1776951099190397  0.6806977385598569
  0.6727260545820262  0.1667904356027734  0.5210204478013072
  0.8006754558855979  0.0224419964389526  0.5031623739648120
  0.8317687365398601  0.1873198683642988  0.3352234685134823
  0.6739589162853376  0.1995001873408244  0.1758053046212153
  0.8225068083384298  0.0146309109789330  0.1905896654074033
  0.8490443467836342  0.1461619451644919  0.9694755879502791
  0.3166569349402579  0.8283100806077066  0.8726171644503672
  0.4914672063499376  0.6688121402151646  0.8564863196578878
  0.4887694205735729  0.7840642238573531  0.6853642083650844
  0.3359824834306322  0.8507898473860420  0.5292182574880311
  0.4778785619034466  0.6565845342798361  0.4751084949759382
  0.5350786567266248  0.8268452375054733  0.3308153361090441
  0.3483865855105682  0.8147337032404256  0.2050358313217072
  0.4971798191478606  0.6626355646193977  0.1677648111161426
  0.5099864879014756  0.8266985993506921  0.0058854006179732
  0.3251102075636657  0.5029364522248934  0.8517589193107098
  0.5002490990457801  0.3320437312647761  0.8360412686120176
  0.4949026767807105  0.4803150269971989  0.6519280775233492
  0.3415339845397226  0.4721253953632815  0.5075395350306507
  0.5090876713155299  0.3239724384840960  0.5350968199812737
  0.4960427054390431  0.5086470002669097  0.3214734897084041
  0.3138517818567482  0.5173301895333328  0.1302970824250610
  0.5172430118072331  0.3327968206176642  0.1243474781587367
  0.5104618270995112  0.5201590670670639  0.9954909538017532
  0.1395881646947027  0.0037400855194945  0.8383878839426142
  0.5193670383540127  0.9805500170896030  0.8056070094606617
  0.4781936598489633  0.1536029610833187  0.6609388747269586
  0.3164062290392413  0.1920055282538349  0.4332341115978809
  0.5285488054437735  0.9920400471750624  0.5053957111184135
  0.5178394833517913  0.1639318417781507  0.3200442332815027
  0.3816708150942306  0.1758827603006374  0.1600349014333788
  0.5011917613306841  0.0079657258268555  0.1721011122820053
  0.5399562579446582  0.1564314337629505  0.9924709610949213
  0.0003723618607739  0.8425167348368410  0.8298498348708047
  0.1463095524519521  0.6647412917608870  0.8435388426485222
  0.1579335209251641  0.8322959501865329  0.6598120443122646
  0.9769988646737986  0.8513951042645561  0.5097421842435221
  0.1824649060946119  0.6841824260966232  0.4838839100061910
  0.1661506725164840  0.8658736585068071  0.3315150252062292
  0.0003313488358051  0.8139737111251438  0.2002324398600830
  0.1277038041861475  0.6517843816510066  0.1627415838785765
  0.1431153042149187  0.8294996229223888  0.9974195721405175
  0.9954431033551011  0.5225060062809402  0.8139129151919094
  0.1731537678774069  0.3313929890282013  0.8692265923392111
  0.1844956542569034  0.4877978643444876  0.6737761909358937
  0.9907616267470636  0.5238773280862260  0.5053003679780187
  0.1750257929900519  0.3474331667451333  0.5096053030725352
  0.1956619958989259  0.4963946172607015  0.3404557016798329
  0.0018588221555490  0.4700071582301226  0.1742708468566003
  0.1455785883755930  0.3368395924401526  0.1421985885047232
  0.1399306105346298  0.4991600946424760  0.9846899708439270
  0.0401215599948750  0.1780768063638978  0.8104038018004668
  0.1733790286982798  0.1658927829723633  0.0071028947023795
  0.3333649802221667  0.1765663766900787  0.7911468355945207
  0.9888600599368572  0.1689551803505940  0.4531937020932323
  0.1966162572537762  0.0142310150771404  0.5313426079180902
  0.1510060017032355  0.1629572061407511  0.3165586014278216
  0.9845834127573633  0.1306606080110770  0.1724411087546313
  0.1585030696721161  0.9989896429645111  0.1681798270533764
