Cl O  Li
 1.0000000000000000
    11.7780000000000005    0.0000000000000000    0.0000000000000000
     0.0000000000000000   11.7780000000000005    0.0000000000000000
     0.0000000000000000    0.0000000000000000   11.7780000000000005
 Cl  O   Li 
  27  27  80
Direct
  0.6530542815504987  0.6469473541499507  0.6660395353116628
  0.6736551609392054  0.6629967827830526  0.3267447962959802
  0.6505855217381309  0.6882223915193443  0.9858963512335973
  0.6629235313863496  0.3314353643459207  0.6888263434389380
  0.6836131547936315  0.2958012603561616  0.3483118195073527
  0.6542938233464494  0.3150483481220838  0.0394580197356650
  0.6698545930816473  0.9995603917858182  0.6449418189722457
  0.6590513043532084  0.0222838171572112  0.3167630172632178
  0.6693524120568254  0.9917208580505980  0.9728682880157580
  0.3224218008443034  0.6723026376542611  0.6722525072909604
  0.3519324258534240  0.6457947750145384  0.3014209699551884
  0.3242151830481517  0.6578150956510046  0.9944425416683108
  0.3448398678578993  0.3464907142235021  0.6671128844998341
  0.3270887969598598  0.3513898536796203  0.3345752008875527
  0.3360814769425237  0.3232418258699448  0.9917627927746563
  0.3411319306182704  0.9997836973669815  0.6616699045320719
  0.3339240701752537  0.9729596148140046  0.3609228627601664
  0.3221193950748011  0.0019267342649898  0.0020505766666055
  0.9780908615475092  0.6682585905413599  0.6733791352786050
  0.9881085878287860  0.6646027985097259  0.3276345036646907
  0.9924243363232618  0.6801369693305974  0.9753260864033861
  0.0004481665238585  0.3356721624955180  0.6755761570194956
  0.0081185579887083  0.3439911854995844  0.3514046619138538
  0.9832701967302736  0.3473560493754322  0.9937045027665657
  0.0127541975216863  0.0072455685698197  0.6727390204621378
  0.0281274072088433  0.0000463112764139  0.3235446675531540
  0.9801190920233704  0.0025830196816568  0.0029659097183429
  0.8225182723940438  0.8350762525645663  0.8164503635028699
  0.8602101890426352  0.8430988413970959  0.4831324855557496
  0.8455062120378715  0.8187426568391376  0.1520314874430925
  0.8208901111481365  0.4926191576935260  0.8404858226433306
  0.8410657722763060  0.4925160818398340  0.5032206981984613
  0.8154961590118046  0.4962180677242025  0.1744432792181486
  0.8186932108634759  0.1673895156711432  0.8447229446762073
  0.8701163210869359  0.1618677713383544  0.5021431385276569
  0.8401166323258121  0.1550642892911113  0.1669125476309079
  0.4991845418761672  0.8356338176301781  0.8181892928303567
  0.4793213066564588  0.8206211798600769  0.4940101054968274
  0.5010369518076991  0.8318404966609982  0.1863722445270987
  0.5001827906289109  0.4889043379342082  0.8343154413152837
  0.5130320905191864  0.4912824509137338  0.5041570852448258
  0.5166122153196535  0.5120831662858747  0.1611459880242480
  0.4881778949336295  0.1874663519136636  0.8256760167769991
  0.4939262563485242  0.1652507524351477  0.5031257194267560
  0.4867411891913002  0.1780100735018450  0.1769390427989425
  0.1600636269680364  0.8363827977139578  0.8255609572419665
  0.1734691963908057  0.8403597605025983  0.5130655353321220
  0.1764748332243089  0.8343580413923366  0.1588244027983428
  0.1758953857946279  0.5008978977147082  0.8248148921077021
  0.1552480493980221  0.5032059304496377  0.5190782259884759
  0.1844838189591005  0.5178393413848867  0.1708823242592852
  0.1637125466013340  0.1785280438365411  0.8420610289730442
  0.1739492318963936  0.1635190193892766  0.5270676977556792
  0.1722750589820963  0.1756097340322656  0.1588363561156258
  0.6818041047361391  0.8095731973139967  0.7874567371786069
  0.8476801166096896  0.6639697686399972  0.8270245857819020
  0.8395312132981659  0.8400763626330602  0.6415784125711556
  0.5628409259923466  0.6913347478934337  0.4698402347953856
  0.8282216950039119  0.6519674640109518  0.4667939910957186
  0.8362263083144303  0.0074592414643558  0.1946085558386699
  0.8391893544966831  0.6700086128711688  0.1806887812243283
  0.8025826087759635  0.8378363858722294  0.3408579697135767
  0.8290461398918086  0.8479018684900307  0.0040678820913376
  0.6565265532189017  0.5127937662010371  0.8325446904555887
  0.8264560453058684  0.3546433421927397  0.8539936986970034
  0.8303590007651497  0.4666869570976553  0.6706423215670638
  0.6661962099837777  0.4861844471240195  0.5269068897074213
  0.8522781255867183  0.3224821981233523  0.4898803507710957
  0.8187388784058813  0.4585560293081425  0.3495255720971752
  0.6627165294853568  0.4936259893531757  0.1373683096101896
  0.8277214572787667  0.5219931444441193  0.0032439850216439
  0.0003742409503565  0.5208138449381505  0.1479405582254876
  0.6645025028591870  0.1796076277778422  0.8419938231925539
  0.8096408351438641  0.9804794102798869  0.7818722607031254
  0.8762109946984065  0.1552103606501533  0.6881844067790240
  0.6670348652505612  0.1718590441997463  0.5236648990507231
  0.8404201109586777  0.9871756641885816  0.4792750761826441
  0.8444689758353612  0.1851132791601822  0.3357659780072377
  0.6589910620632264  0.1438596079658812  0.1307413641929639
  0.0077770791276156  0.1790724916293340  0.1916209754979973
  0.8634517748452339  0.1464044601062201  0.0071944754128639
  0.3392147845162539  0.8543435830354557  0.7895533146174513
  0.5037887451209159  0.6562731683282569  0.8224172651605883
  0.4864124476626357  0.8410462311134399  0.6423952462019846
  0.3349382701795113  0.8454364689666873  0.5103731746006883
  0.5228738102762820  0.8060477278169403  0.3331567743078087
  0.6697249183136286  0.8271056469983924  0.1333920958016327
  0.3236681846745328  0.8298673997224527  0.2047327827862852
  0.5088242799231020  0.6705003891456375  0.1690493878099315
  0.5242584922668462  0.8346255689811806  0.9730326107036659
  0.3138962010360485  0.5048268448071669  0.8130806008924198
  0.5034572910697859  0.3353893314217188  0.8420981136085438
  0.5036736855858833  0.5148748782132864  0.6563859512545306
  0.3378762761357196  0.5049595154955209  0.4971948902692888
  0.4964064330464934  0.3340655394876955  0.5144995690373955
  0.4778102292160808  0.4893652643263073  0.3192833150024317
  0.3360516796808123  0.4968864818422136  0.1635220160051618
  0.5209632632960848  0.3413753017075162  0.1936829581540529
  0.4884506046549452  0.4630132705148306  0.0025951411712443
  0.3103465819919667  0.1255174602041572  0.8318455883968476
  0.5286278801339773  0.0339026920597858  0.8223508690882967
  0.5009105563578851  0.1984788692406416  0.6749394429774628
  0.3404832328948973  0.1722966712384283  0.5006336400182662
  0.5059498563031949  0.9988784242279550  0.4754447920341945
  0.5069974972560581  0.1736151798264552  0.3253855998709697
  0.3439563547569088  0.2046753231726863  0.1536900532318603
  0.4800251859935721  0.9961808911691102  0.2111105506267194
  0.5150394785999460  0.1617765273457155  0.0098980113826083
  0.9916440148389324  0.8448129936537030  0.8237056728463292
  0.1790719722715775  0.6655890230957192  0.8035493637441086
  0.1694054733686765  0.8587479098113598  0.6580352863698335
  0.0132454689937000  0.8355866926130149  0.4891790220148084
  0.1762232973723887  0.6680159614796252  0.5337532964105468
  0.1667035479591460  0.8223516882222976  0.3431279056777585
  0.9960587292854074  0.8370580943516575  0.1481614972288501
  0.1902251763980765  0.6725515014691257  0.1442935110423994
  0.1579313717616878  0.8459313626177211  0.9932796944208041
  0.0005720394637853  0.5023574372282401  0.8114120352073984
  0.1993510533794234  0.3342507602381438  0.8329799086123796
  0.1594351112215154  0.4875152430339614  0.6689533107500256
  0.0057451634571937  0.5177308809716733  0.4980270273850729
  0.1809406370951981  0.3405240149928332  0.5308244603996887
  0.1353062319976318  0.5011868420854073  0.3228270434193682
  0.1783954205861698  0.3480400908616779  0.1647751710202027
  0.1623097878752344  0.1747912404996291  0.0124093479293671
  0.1590414817020792  0.5095621802946920  0.9751468347205651
  0.0037540397572907  0.1429355689695467  0.8461102177330072
  0.1750256782184249  0.9748583096904436  0.8609384039754487
  0.1410147051623889  0.1927531998980151  0.6950111375729215
  0.0165751586393295  0.1292922388555873  0.5161361917339791
  0.1659637884274787  0.0113185425081189  0.4969172413279611
  0.1893912174388452  0.1952191864598024  0.3542554825397691
  0.8125792360757318  0.3011682492094775  0.1705211741599686
  0.1980959449433532  0.9999277510976642  0.1757368083082462
