Cl O  Li
 1.0000000000000000
    11.7780000000000005    0.0000000000000000    0.0000000000000000
     0.0000000000000000   11.7780000000000005    0.0000000000000000
     0.0000000000000000    0.0000000000000000   11.7780000000000005
 Cl  O   Li 
  27  27  80
Direct
  0.6556370753246226  0.6602401087682858  0.6569421075075355
  0.6339306608468470  0.6692586386851926  0.3464859761814782
  0.6705361110344487  0.6625711372160581  0.0214822528678799
  0.6667106041643712  0.3210154095117891  0.6785462153544075
  0.6498232085164546  0.3573346683365669  0.3818115206194250
  0.6832214045290814  0.3359594245120520  0.9854485173966621
  0.6718421703589208  0.9807285654043205  0.6670785205635409
  0.6627465157360897  0.0003988838501859  0.3546576727787947
  0.7134453824612398  0.9995958671306659  0.0072444451158015
  0.3084899481397732  0.6844239874215649  0.6494288251319763
  0.3173938233757468  0.6505603306509263  0.3279653383687076
  0.3206282837461972  0.6751607636870168  0.9899497124742634
  0.3376619126947956  0.3341971755884431  0.6767426308272558
  0.3334309039588187  0.3084397100218478  0.3385553297149091
  0.3524409901349870  0.3422298452880461  0.0224332981629785
  0.3399005534370982  0.0349603964880409  0.6687091109340443
  0.3501622283514397  0.9811335080654952  0.3041413750097421
  0.3265049434251727  0.0024241667984285  0.0010496836636675
  0.0179085359729860  0.6668608093110293  0.6738351711128429
  0.0041381129847679  0.6496458462113364  0.3275612534921559
  0.9895089280304733  0.6369676781488518  0.9833112584466794
  0.0015296903690876  0.3472150162402742  0.6587295788415333
  0.9996842344392964  0.3217203617122656  0.3418637974147188
  0.0108668909107915  0.3371111129684456  0.9760639512975273
  0.9894684729845967  0.9908903033494090  0.6493909307882780
  0.9763037386138343  0.0183779356825784  0.3492258667841743
  0.0027683207688762  0.0100623988518579  0.0082098646291803
  0.8264608901170319  0.8375253140153485  0.8261488540563594
  0.8231218154473120  0.8199315694203126  0.4888451875012331
  0.8550818077574420  0.8432016923713802  0.1514642950266574
  0.8185633202303788  0.5007391319699988  0.8255308847591264
  0.8235875596031934  0.5076865092855000  0.5040296453510942
  0.8226905648606948  0.4772942739896558  0.1733205257638937
  0.8410081076145313  0.1569379214891483  0.8247156705446944
  0.8259570896758127  0.1664380658426304  0.4897250569153295
  0.8376968869068460  0.1800900699556683  0.1787034456260187
  0.5117435479391873  0.8319426998687238  0.8368250185976057
  0.4879240379753147  0.8385918616546508  0.5146613164268229
  0.4911638424198763  0.8445780343674980  0.1443011405975603
  0.5068718575910044  0.5052390043133475  0.8349409895609152
  0.4874373223770876  0.4940805775689671  0.5191378691740496
  0.4748424328028376  0.5176160823821524  0.1588631150269806
  0.5257627547203270  0.1751940073907050  0.8425851207813810
  0.4958850889847444  0.1701348088664126  0.5210724644877477
  0.5141689478775159  0.1536552025100566  0.1498289374991343
  0.1844279154126582  0.8517122923352547  0.8346933807937584
  0.1538534856507583  0.8368734989154103  0.4938035166266749
  0.1732291651999835  0.8385962340789237  0.1795309269196605
  0.1963206462797172  0.5103182633582622  0.8374810441801769
  0.1694676151562494  0.4944937311773440  0.5008583827055508
  0.1564815555512165  0.4977533734727733  0.1528432078463058
  0.1663980923458703  0.1666748447626297  0.8213403209476736
  0.1767422664043048  0.1414540740328250  0.4822899923517630
  0.1664277377872945  0.1617628107034474  0.1655954844516745
  0.6780064383900677  0.8215189213730063  0.8156845091798883
  0.8140169706364259  0.6755684517650525  0.8364544961258892
  0.8379487061566359  0.8318166283021891  0.6562019532431214
  0.6619076580422564  0.8290985188500375  0.5344220425885781
  0.7966895390679362  0.6548879780604158  0.5002457979678389
  0.8467094249830827  0.9993930273929695  0.1490783987270721
  0.8441735808464540  0.6420301762340540  0.1540075581146564
  0.8016676250734257  0.8230482982186746  0.3137453644397050
  0.8248683560318667  0.7937583186936946  0.0069698907779957
  0.6656602911744525  0.5354396221639740  0.8196477069291512
  0.8126994134555326  0.3386149840058555  0.8429582343193331
  0.8111839635908816  0.4815631365839209  0.6503826613900222
  0.6429692310416713  0.5107373683218995  0.5222046389765531
  0.8344528719796513  0.3074961165725151  0.5043479821294055
  0.8198607966479450  0.4876968786159776  0.3381054963251319
  0.6443357755685849  0.5040770325628305  0.2066757465138755
  0.7965917263175355  0.5042312414892693  0.0009115896699899
  0.9946999543976128  0.4841831094023923  0.1471841066389633
  0.6936949800790176  0.1849388658045334  0.8409921008712966
  0.8311125017768134  0.9959125380618471  0.8328344527112272
  0.8426403174014320  0.1616285307200487  0.6759316270954573
  0.6583128775233931  0.1647225674461428  0.5120988733758677
  0.8339115010780134  0.9957505312659043  0.5019481689701554
  0.8409582295894925  0.1864572508614047  0.3406611783126282
  0.6828822987354739  0.1511357549644513  0.1272849912247009
  0.9866666774168606  0.2118275949382107  0.1982110367621615
  0.8739026651275787  0.1834539824243827  0.0011265486936422
  0.3491575829039265  0.8567043862925813  0.8236599729952545
  0.5209138171725270  0.6722047214806829  0.8543731766210556
  0.4790090292516093  0.8137429696577951  0.6687536043995619
  0.3250878731066614  0.8538508936296104  0.5065184859267894
  0.4864991944580961  0.7983738173678151  0.3717955111725634
  0.6510339651859419  0.8282349650561444  0.1487815698227882
  0.3262683466895182  0.8486653603836188  0.1708210577680909
  0.4728029802774103  0.6740140954214549  0.1708737292864151
  0.4736043889670547  0.8152000395613214  0.9954537760694326
  0.3515689344050078  0.5066697587004164  0.8402622299010055
  0.5199843126458513  0.3239574235235809  0.8206496398541990
  0.4739277864216078  0.5509486920306861  0.6612284597988919
  0.3246442947127191  0.5260077362116407  0.5049399597934611
  0.4890625281880698  0.3315546726393433  0.5432962420190700
  0.4801073984231198  0.4847256543809184  0.3661637477382787
  0.3162149489665825  0.5029582182593034  0.1555398802738974
  0.5095638539537487  0.3399502333108901  0.2116888321562531
  0.5097673741094870  0.5177600080144680  0.0013962049294305
  0.3468022227247839  0.1535874198124745  0.8083469334834428
  0.5463867512781058  0.9894309321033617  0.8770288120201445
  0.5281871425234070  0.1261741313436344  0.6735173606448606
  0.3272564740897783  0.1810677521201653  0.4826380049355559
  0.4985773687453580  0.0123338119009178  0.4832123714462901
  0.5494332783756423  0.1611286067568307  0.3212105299055576
  0.3285671892363928  0.1578517784048844  0.1879826003693759
  0.5137531222320834  0.9951624642394145  0.1737091452138505
  0.4906942521500515  0.1662168333200459  0.0004635017390778
  0.9795754430310859  0.8446615962536017  0.8307248389703841
  0.1829293682066546  0.7035041943277390  0.8042734534775193
  0.1547924131565960  0.8332388807531719  0.6461166327744525
  0.9769631017123870  0.8004410023990470  0.4691840554479155
  0.1649907891325056  0.6534370214537897  0.5001591591905801
  0.1595380218168919  0.8181174991719882  0.3475245888879261
  0.0013434761446346  0.8598603859385796  0.1843957549908596
  0.1868538011759058  0.6756807987776194  0.1513142662187943
  0.1853481487804589  0.8663460676391930  0.0013335031507952
  0.0160835308684721  0.4840265928075873  0.8183040771442603
  0.2049522976192943  0.3410199388121672  0.8201139369099518
  0.1793807208124112  0.5264997149131589  0.6765802033626006
  0.9888506162874099  0.4936685170666585  0.5038610236187190
  0.1765904866024621  0.3304493197346192  0.4762591237463487
  0.1363016940617666  0.4969824098113994  0.3119064968777960
  0.1723926354172214  0.3215097970951987  0.1478626927162202
  0.1622055143852734  0.1691820657144348  0.9968746172243286
  0.1759302505372577  0.4907406931910485  0.9801788137182486
  0.0056636845181947  0.1711334017451407  0.8315973805252825
  0.1650366388592559  0.0092013108724637  0.8436050292284394
  0.1728448574461846  0.1663751413942404  0.6344682111136405
  0.0184956376754826  0.1729057720212331  0.5024109576911113
  0.1362496500672964  0.0079492932444082  0.4762931719761031
  0.1112682088383168  0.1411226098603425  0.3200410076260880
  0.7780896816721897  0.3211422503011125  0.1433073958466718
  0.1585504713337234  0.9959095744033228  0.1288422017896989
