Cl O  Li
 1.0000000000000000
    11.7780000000000005    0.0000000000000000    0.0000000000000000
     0.0000000000000000   11.7780000000000005    0.0000000000000000
     0.0000000000000000    0.0000000000000000   11.7780000000000005
 Cl  O   Li 
  27  27  80
Direct
  0.6605256092785154  0.6465813581002323  0.6705636776303171
  0.6598055762628385  0.6757761969118675  0.3476137487986151
  0.6571943078075030  0.6590559655215685  0.9956701436684726
  0.7081209049635322  0.3286473286468984  0.6944425392051531
  0.6640647628441295  0.3289053624071130  0.3309334157798062
  0.6871869521072982  0.3209360118886469  0.0103007370722238
  0.6632402369854128  0.9738327354634326  0.6594880840346617
  0.6595332309102123  0.0221366725819057  0.3296329839273148
  0.6528788060209939  0.9853788618798628  0.9989810922066638
  0.3598020490443718  0.6859329336436598  0.6724339821130400
  0.3270400610061535  0.6794474948555060  0.3220405525753346
  0.3336756399370476  0.6878256265580763  0.9922252818877642
  0.3095486837701358  0.3360492559024341  0.6842833733487647
  0.3302700477388061  0.3487979293063185  0.3461961926551846
  0.3413817948055325  0.3529424207212662  0.0221908673842791
  0.3111588694940325  0.0038457056530604  0.6659105680103681
  0.3434791819525754  0.0113467275915471  0.3139763649840980
  0.3306169064884160  0.9792698513725996  0.0029710557144232
  0.9806348795651080  0.6204436130781267  0.6849827183199653
  0.0097466486414036  0.6574432697022560  0.3135021188921306
  0.9953848049798090  0.6513039811690382  0.9695772862120468
  0.0108637246026418  0.3365797564715047  0.6631769526462117
  0.0039472601116711  0.3444761927666796  0.3459395961270228
  0.0095012994661890  0.3208873889113161  0.9886041384086039
  0.0039201541808435  0.0074354460546792  0.6257026045906059
  0.0105931365698404  0.9987336512120534  0.3331823803016421
  0.9863135529378156  0.0024342210559510  0.0075936889931676
  0.8224459536890508  0.8159852685954353  0.8300450999756062
  0.8416897216513584  0.8329557807899465  0.4679531885677051
  0.8437007939044219  0.8357353470943781  0.1674384318352962
  0.8226009318382783  0.4920329614991765  0.8577652172449839
  0.8273667933248938  0.5015427818656329  0.4780102907056498
  0.8494600863799987  0.5154785077314885  0.1617150802823884
  0.8441426516684422  0.1454699274447981  0.8479042669181696
  0.8253555591301904  0.1721604501327908  0.4759344417966919
  0.8344670435483059  0.1791288191333427  0.1828780894666766
  0.4926700228008301  0.8453501461287934  0.8343751765096915
  0.4916512479452499  0.8421918792998390  0.5001141504527477
  0.4872070025551505  0.8310334525554586  0.1534553582825228
  0.4899680265418321  0.5045761107195309  0.8461547304132798
  0.4955795067857399  0.5060726134123327  0.5161086808699790
  0.4958163059484441  0.5185985563334652  0.1879419640558164
  0.5039465050005780  0.1784186848003947  0.8431197821429844
  0.4929412750473881  0.1737660407626599  0.5250349445376461
  0.5026497978058007  0.1617721469775281  0.1487527754916344
  0.1592575405720464  0.8293958986944465  0.8389661410253918
  0.1747843126842523  0.8280642525908959  0.4979960347758186
  0.1590256603866492  0.8204158299169770  0.1614002151279789
  0.1779820527878925  0.4926066802433517  0.8315381209231537
  0.1698846469178050  0.5058829797522016  0.5159127719713081
  0.1669901627772758  0.4847310939342929  0.1460564977967898
  0.1700417707937590  0.1599744834415794  0.8194890961310441
  0.1665755719368462  0.1769487405365095  0.4987543265038831
  0.1813699731046978  0.1832646061851546  0.1730689807072828
  0.6416404610774037  0.8452813209319056  0.8219262368382535
  0.8182342564936126  0.6615671135581372  0.8491383431837790
  0.8504091453596725  0.8214014067364112  0.6746134736714290
  0.6734287547640033  0.8309509432900128  0.5030146871620621
  0.8420043742573657  0.6544300216116852  0.4859564025988138
  0.8603123624544581  0.8175271959181831  0.3165524718609060
  0.6533620803593766  0.8496451622978759  0.1841862742751703
  0.8807844577541643  0.6473034558718160  0.1312304167956648
  0.7899472625143387  0.8230961259962503  0.9905577302357446
  0.6720509148077183  0.5011967530669266  0.8672734586804528
  0.8425992668709366  0.3300563828542428  0.8685237291100358
  0.8261512593770340  0.4932920172627152  0.6810447024956812
  0.6794508380354620  0.4821482462367310  0.4743905711742673
  0.8502443697412410  0.3289398154909669  0.4818546637767566
  0.8484668983034969  0.4889446939439979  0.3199520114903624
  0.6636278847855311  0.5160289068795417  0.2002523828971650
  0.8146764796394290  0.3313047707122638  0.1602386583529138
  0.8484304614345564  0.4994294029816660  0.0072626695276099
  0.6739469680111591  0.1463563656166564  0.8274077994016827
  0.8305745333247877  0.9873230357885177  0.8395554466523917
  0.8310162291471679  0.1638644734483293  0.6759306259982231
  0.6557156186950720  0.1887892654674586  0.4994982459114211
  0.8275667912499678  0.9962811380681751  0.4893360031638777
  0.8480158908368316  0.2180405206978368  0.3221094587430424
  0.6545482218996240  0.1480315304234972  0.1742855470330958
  0.8184329588855689  0.9947754138743840  0.1922749960248269
  0.8210321222033344  0.1421381806342763  0.0280285472045026
  0.3312457663609214  0.8190548723766342  0.7912270411642895
  0.5107262322335424  0.6631081097164566  0.8548826560576802
  0.5121608732199651  0.8314736099322613  0.6633917277459118
  0.3367449603203770  0.8293184096198326  0.5297368390765657
  0.4927456900319967  0.6546800190180279  0.4828373661320854
  0.4684560230025601  0.8387124012284677  0.3491634898054803
  0.3242909599726974  0.8231087574441497  0.1556896670859626
  0.5108433160390717  0.6679034040960941  0.1537577336879677
  0.4787279812110248  0.8324989434242508  0.9894532882527439
  0.3461230006774981  0.5199599592133171  0.8068299562112289
  0.4676428735440348  0.3390909449934835  0.8627698616793902
  0.5059519092962508  0.5284159038737805  0.6699387043571654
  0.3273615354037347  0.5148305792309041  0.5041759706606100
  0.4700390025309811  0.3530948482896680  0.5102477295300579
  0.4758620190417941  0.5010053785341684  0.3551029423552636
  0.3497655134946737  0.4803588316030563  0.1490973670582880
  0.5043723710276743  0.3291597322377287  0.1832366687424624
  0.4697043501324663  0.5168748090347036  0.9868726103201206
  0.3275854197206700  0.1423167212920854  0.8120525740927199
  0.5016700508853970  0.0200661968459474  0.8335619055949364
  0.5058223154990520  0.1876584877252959  0.6890024337014963
  0.3425276128774857  0.1901936638526606  0.5446274133357155
  0.5461337596266056  0.9894912926456499  0.5079986030665822
  0.4751389496203721  0.1393984317305149  0.3199413638275497
  0.3322228412442696  0.1469991625915316  0.1548934000433799
  0.4732853251265421  0.9984689465316753  0.1610510993167652
  0.5293981032951217  0.1811510046314331  0.9892562369064115
  0.9798416717013134  0.8525865892712237  0.8345535552258607
  0.1536408377102573  0.6527989859016724  0.8408133283390423
  0.1734351161554955  0.8256471116761940  0.6834212770296292
  0.0269090705351856  0.8561731107664604  0.4696987575024212
  0.1460360077014848  0.6728308428537562  0.4995888927442634
  0.1883746777606655  0.8194979447029523  0.3148062146742210
  0.9912203922128355  0.8579831324737913  0.1650160075745979
  0.1438993193427484  0.6575769120404481  0.1386983453907454
  0.1393469880294777  0.7985255307072813  0.0024657886259707
  0.0120808779668987  0.5028024449103207  0.8463059839047934
  0.1591929967072591  0.3295328862610906  0.8256092755507731
  0.1769060518053705  0.4899856143188120  0.6749290979272748
  0.9994894066817673  0.4748847993258747  0.5015119902015402
  0.1831070603460327  0.3401687880621573  0.5021724691792042
  0.1919782436134845  0.4871289233084563  0.3384621433392552
  0.0065432121140688  0.4770363154659994  0.1781598995502586
  0.2131788738649539  0.3303940716585026  0.1831525805460294
  0.2034483472862422  0.5015058996571830  0.9893536460678819
  0.0329171888705551  0.1611608476515816  0.8542663061768444
  0.1471192353296799  0.0033179267789310  0.8823136265293090
  0.1627798218430703  0.1875030642365592  0.6548638000265857
  0.9808726415214671  0.1812838575041316  0.4736331296398113
  0.1796290599921242  0.0076191966786792  0.4934368513069165
  0.1532194250782539  0.2020055251133764  0.3292789187747367
  0.0248479406030768  0.1869354385465790  0.1399857814266478
  0.1975906347791157  0.0202071113758991  0.1731033123349069
