Cl O  Li
 1.0000000000000000
    11.7780000000000005    0.0000000000000000    0.0000000000000000
     0.0000000000000000   11.7780000000000005    0.0000000000000000
     0.0000000000000000    0.0000000000000000   11.7780000000000005
 Cl  O   Li 
  27  27  80
Direct
  0.6674879120452849  0.6722269342998820  0.6600068452435235
  0.6800532067848732  0.6711607915146791  0.3409518557599359
  0.6472153693311434  0.6640875855451028  0.0085535292544928
  0.6754643879958996  0.3525038140961529  0.6779291289401742
  0.6733682154111547  0.3385839989964014  0.3208500805048962
  0.6710336647327181  0.3219166213087713  0.0029828953099937
  0.6429577616808401  0.0027823408335356  0.6607718980350472
  0.6581460251592350  0.0183372544174451  0.3402425918633014
  0.6910117975458192  0.0017775160483081  0.9736622477706964
  0.3265112066738927  0.6710710353608552  0.6640374512003268
  0.3528613786419224  0.6760580686419403  0.3408947308465189
  0.3181754024674086  0.7016169937582190  0.0030510901363972
  0.3077002884718949  0.3255350250643312  0.6746347906484313
  0.3354591907639894  0.3397800594620828  0.3450016922864578
  0.3494408068420053  0.3623674769454328  0.0108157742559562
  0.3401286767322568  0.0010543697678657  0.6463019671851119
  0.3385902109120583  0.9986009608842928  0.3218913854911047
  0.3401234945997852  0.9945324077629830  0.0157997749268033
  0.0091096748589913  0.6524396901946200  0.6467393715540393
  0.9808239656588983  0.6768155506618061  0.3486940426432621
  0.0118414892549901  0.6635693722979471  0.9994108378600405
  0.9947839315313673  0.3436294932094311  0.6759406880312638
  0.9830325459843249  0.3082432611419934  0.3272979690753361
  0.9923791652352454  0.3027090068175348  0.9758287789372304
  0.0351296851460862  0.0058733250229791  0.6549352379410864
  0.9773377897825212  0.0033753847188168  0.3432396457898986
  0.9959203519275395  0.0061844123825742  0.0030023653129571
  0.8371429130528988  0.8234009124683457  0.8222462551697490
  0.8252048992548286  0.8377133145882274  0.5147630484659683
  0.8373848538626646  0.8093123136945790  0.1562264847876551
  0.8248078183541956  0.5076408280722399  0.8540281116761692
  0.8610200742405175  0.5001500555846040  0.4839386719044882
  0.8406071686101347  0.5155324870890426  0.1711785968699047
  0.8360256776803592  0.1703963916718469  0.8252241190120374
  0.8310492110912669  0.1671473767965252  0.5124934768704760
  0.8473236981181920  0.1481918447102430  0.1735192406025363
  0.5037835375605962  0.8280547103402635  0.8428996441351402
  0.4982894650054973  0.8236571041424081  0.5080482193451284
  0.5165169277222307  0.8414178105680121  0.1629990562244135
  0.5022594238182193  0.4891108178870694  0.8350780248775234
  0.4690667317464177  0.4889032491903376  0.5289382860169937
  0.5115262507542516  0.5124952716357908  0.1612664021354664
  0.4906946854997409  0.1548621500015082  0.8509433663516551
  0.5006119510317735  0.1778790468347909  0.4973778037320929
  0.4844240218112872  0.1691309189708336  0.1707261319284819
  0.1609597460890783  0.8348206320484403  0.8257894572763563
  0.1565452473539280  0.8345228213729654  0.4743890138946568
  0.1608426825262540  0.8296840051776490  0.1616524710045974
  0.1506236893553355  0.5016620237040006  0.8386753154918024
  0.1752135253353757  0.4831011636364604  0.4870294090696727
  0.1622334373283081  0.4888740592097752  0.1612192771183032
  0.1900700716074760  0.1576788717909066  0.8426675007945782
  0.1608513059185699  0.1618514600803485  0.4830017585477947
  0.1688333890984604  0.1659756075768043  0.1702121898920742
  0.6728917426216409  0.8170328003981806  0.8246528698778681
  0.8458197461099622  0.6683083109869563  0.8888477504315804
  0.8626955224452278  0.8259129511839328  0.6766025030274555
  0.6655157462711682  0.8182650143349330  0.5385836515359093
  0.8657089324774383  0.5068499860745883  0.6363237306257188
  0.7929103355170037  0.8231522510805308  0.3553424352064005
  0.6794495693227567  0.8317817971787912  0.1235951330459414
  0.8583030174090244  0.6696372850534511  0.1676372469708019
  0.8731890168168516  0.8439385131613252  0.9814141334400401
  0.6658380101342430  0.5240693620839642  0.8498171432181099
  0.7891184720225816  0.3274622722761262  0.8474930377754365
  0.8389582788343412  0.5371987805255732  0.7040779264791920
  0.8204282686491708  0.6675500597443018  0.5004314562617778
  0.8425124120016306  0.3362344079881744  0.5308561203709791
  0.8526967597829981  0.5094298783372251  0.3452883694742007
  0.6646720303281427  0.4974265615729311  0.1901459304531826
  0.8247496813055303  0.3565331650052482  0.1858760152382593
  0.8205628421517914  0.4719728175516611  0.0083198556919524
  0.6478621642402497  0.1384619557767377  0.8143432602381649
  0.8434366129396049  0.0002495678948013  0.8579670991502919
  0.7924805424051440  0.1940371180654508  0.6654212829972823
  0.6418264778710532  0.1633480943507326  0.4989273423119083
  0.8318446684256510  0.9897827518268629  0.5052893005997632
  0.8205652712763875  0.1580816712556928  0.3411245260333046
  0.6561407423197920  0.1912870251394513  0.1719476577170117
  0.8296646100715226  0.9769792586475895  0.1787094903987852
  0.8439559597782388  0.1579521381866088  0.9834010118651607
  0.3216018851371761  0.8478176631995653  0.8284117782486040
  0.3139830977833288  0.4864118985192265  0.8396415402852884
  0.4702668002676826  0.8401360424895002  0.6852757733684449
  0.4615579837367712  0.6606059212615952  0.5340043063328600
  0.4943052958138884  0.4749889401063371  0.6878853009511534
  0.5344177136662063  0.8170208167168401  0.3570991376288483
  0.3621314848961593  0.8356487206232313  0.1594857222289850
  0.5114464944966816  0.6713192514091608  0.1627335124206562
  0.4993355675127830  0.8287724356875741  0.0082166609123687
  0.1875209077709792  0.3081819459886482  0.8319655875326141
  0.5279781043620978  0.3231705961533633  0.8500105825067749
  0.4865101540143684  0.6664318932073334  0.8216787306932937
  0.3199407282821725  0.5157260478339372  0.4878394411516330
  0.4607090046904543  0.3403735350863059  0.5128477646928089
  0.6177710999089048  0.4770389188383472  0.4397044344667857
  0.3473759699645493  0.4696625581191849  0.1741798005510201
  0.4969261188259685  0.3462531097147968  0.2118531343964517
  0.5055338028028648  0.5191259720747881  0.0013460573765237
  0.3307288552245912  0.1409623751796740  0.8482820984150508
  0.5172375275336466  0.0061437827433672  0.8639365918742461
  0.4796767431278317  0.1805055175615568  0.6672582275022195
  0.1859021796255864  0.1775664994701002  0.3229795118539019
  0.4954853240572358  0.0163983714458011  0.4792490039593687
  0.4875637058370820  0.1665011588045106  0.3281314826950582
  0.3402438172381093  0.2115847497785718  0.1639016379534830
  0.4943778456684902  0.0063290509376552  0.1619708280256137
  0.4696642559116342  0.1965461608607030  0.0111225258811811
  0.0191747697024754  0.7957823326070824  0.8414650841195372
  0.1741676050124347  0.6657634790893224  0.8529695801480338
  0.1709353106114158  0.8423578008158606  0.6601333621495675
  0.9908241105183264  0.8292242528624382  0.4511493764572693
  0.1640236009420666  0.6528789973778143  0.4795654784088232
  0.3384794428304788  0.8425430620517188  0.4649615003665963
  0.9787064015956795  0.8510977101416012  0.2059151393214261
  0.1812428554952125  0.6584281300904233  0.1768642058994016
  0.1717157681014193  0.8551137008654183  0.0119678334068845
  0.9859492022126383  0.4600507145196948  0.8435346982753655
  0.2039183489878740  0.1362421306287019  0.6250236049465691
  0.1805539760024799  0.5040441447391097  0.6641469642341984
  0.0174277774525663  0.4660075353103399  0.5079593538703231
  0.1632034879930327  0.3250178846805387  0.4757988778101997
  0.1743779267170420  0.4842845926542425  0.3172574457127594
  0.0219092048961829  0.5491722595427457  0.1607183612625418
  0.1304918941688298  0.3249256791594139  0.1491591390811668
  0.1287256574323423  0.4654714275119933  0.9867869964733036
  0.0083641461564085  0.2056787989055089  0.7879585137300517
  0.1658551608874826  0.1439294091748050  0.9973428191557775
  0.1380101663711633  0.0111128873136968  0.8146412328552793
  0.1775830554079952  0.9991732559969828  0.4546597448964201
  0.1878445076525819  0.8240688916111124  0.3216246473677543
  0.9979452624416401  0.1641269223029863  0.4780712024135676
  0.0134078001810398  0.1562653844311744  0.1819109956455492
  0.1871914577476409  0.0101107165368658  0.1770033744960498
