Cl O  Li
 1.0000000000000000
    11.7780000000000005    0.0000000000000000    0.0000000000000000
     0.0000000000000000   11.7780000000000005    0.0000000000000000
     0.0000000000000000    0.0000000000000000   11.7780000000000005
 Cl  O   Li 
  27  27  80
Direct
  0.6717252685034456  0.6864124149583412  0.6878346902819404
  0.6693463863011314  0.6564852760518192  0.3253972359002527
  0.6668126069204094  0.6766132048816763  0.9854789304794137
  0.6832802903235398  0.3355284237084651  0.6300633868100030
  0.6628702591572625  0.3504307994646108  0.3193466306574955
  0.6686476890964898  0.3427877613502130  0.9899192690274544
  0.6488909305049079  0.9940565773454880  0.6778894088462336
  0.6659488102140568  0.9880669576795357  0.3380891690021147
  0.6713364466264391  0.9970251905878987  0.9937567969013595
  0.3608723801600349  0.6623221385728297  0.6565117358971228
  0.3505639445972197  0.6507952136272297  0.3447174403165157
  0.3428820000038752  0.6494300051188439  0.0041349821833534
  0.3269462544018682  0.3296557923277779  0.6557202056475023
  0.3326199607208444  0.3509882430739926  0.3310234933187863
  0.3312385580484851  0.3407138557409319  0.9893889304000234
  0.3159935137826577  0.0203515594761785  0.6639721848127179
  0.3221152114052590  0.0111086328488670  0.3353151694415492
  0.3475841374552545  0.9979112637584829  0.0311764776344482
  0.0109512357022532  0.6696759084332486  0.6701543878804658
  0.9744954373021349  0.6618189858981693  0.3102184257650774
  0.9895611261412783  0.6662861460302913  0.9843922603262051
  0.9986315934621619  0.3226646907695481  0.6473297663803121
  0.0075457833051929  0.3347392618553259  0.3083006723819118
  0.9760489383914477  0.3598763694855019  0.0054671473225109
  0.9951314741575698  0.9939049202650442  0.6763878454771900
  0.0033264176037871  0.9904711502214885  0.3564354968824144
  0.0064148164202556  0.0292890704967929  0.0199273939358730
  0.8611013604564892  0.8332738872606308  0.8301297322269499
  0.8176061841771328  0.8415445706852361  0.5154197583937132
  0.8243216610645316  0.8442899673036831  0.1548807458546524
  0.8402331559059882  0.5051289920824227  0.8156465626479662
  0.8469666083153979  0.4933802070903841  0.4925688618625126
  0.8371525400932872  0.5003748713646883  0.1730227438710150
  0.8248220607313164  0.1867374774968340  0.8245905184397745
  0.8197783073909140  0.1604507866515809  0.4992974155373203
  0.8384605427174362  0.1521395064821644  0.1810321547026109
  0.4738712078269343  0.8295517396421151  0.8483833080330908
  0.4889866380528580  0.8446528785183318  0.4921855055158472
  0.4940462211885447  0.8203240620974891  0.1806310859890994
  0.5067543079689704  0.4891139760477647  0.8440882918640084
  0.5102465794298807  0.4919981566514658  0.4963892675709382
  0.5005443319100078  0.5033542736525540  0.1720109729913535
  0.5023533819675005  0.1630928948679339  0.8415186019246750
  0.5010748932071935  0.1621311841976557  0.4801010155046355
  0.5075033690235700  0.1723652581837746  0.1829983488787625
  0.1773697292958769  0.8316299367048493  0.8444460209461854
  0.1717546458504852  0.8070421756020681  0.4869850331535898
  0.1508932529702056  0.8023527505694082  0.1502650548748349
  0.1736014687954463  0.5112629365415291  0.8416533373689354
  0.1677205480270751  0.4861525897673195  0.5174746358603254
  0.1707618018999677  0.4994823300172824  0.1692789365581845
  0.1610985721939188  0.1615533460630197  0.8277491901228284
  0.1598503159134800  0.1670722665384656  0.5092894576215010
  0.1693448429163338  0.1701371638907597  0.1896139077744443
  0.6319781909903726  0.8089575403460477  0.8270386711784858
  0.8891066569534425  0.6702749305586329  0.8256286453213031
  0.8348512684218166  0.8226112448463028  0.6843091398140644
  0.6591199741788424  0.8457847696092677  0.4896436290531384
  0.8210420189765949  0.6881326400264385  0.5502841335271015
  0.8485124222374995  0.8519198476598523  0.3535320452235848
  0.6704455246954306  0.8638129226528958  0.1617835892192261
  0.8149621630251603  0.6764978619487741  0.1785141039036484
  0.8173149321380672  0.8107822987425948  0.9868691716228294
  0.6736933047657492  0.4888875006645937  0.8282645693912888
  0.8116718327890012  0.3445771354984778  0.8320561090024313
  0.8583426846235839  0.4904601968988914  0.6782351542470705
  0.6741793725974173  0.5136863122093608  0.5078158696707217
  0.8241470070060763  0.3501714904139833  0.4588182808418198
  0.8560265952920771  0.4978600796412253  0.3458674688711021
  0.6592199326559696  0.4773645028037573  0.1566487335851195
  0.8505085958597074  0.3268712058325147  0.1718122705993972
  0.8535562565487219  0.5150798200192905  0.0102860959354868
  0.6634827629241544  0.1837356665345696  0.8451365400980205
  0.8413227802289530  0.9805212199220690  0.8206597090184586
  0.8076652346802887  0.1751542980741307  0.6845437122792224
  0.6615136335557827  0.1969040521832404  0.4960043727786954
  0.8092163926765017  0.0017822322647013  0.5365716442116221
  0.8342856062742181  0.1442630396154395  0.3532726956875474
  0.6860198570429565  0.1626375554624057  0.1518602002689411
  0.8131161902738079  0.9945886941680334  0.1235081462359029
  0.8115296480293127  0.1699550807595814  0.9733687980216851
  0.3407974467317814  0.8645318625625045  0.8186890412045095
  0.4679098931557867  0.6742320150109957  0.8744539687309358
  0.4827587269572945  0.8338214119445787  0.6634414615738927
  0.3323334049893313  0.7991182092281380  0.4626596984780013
  0.4840801707375417  0.6707979210841608  0.4865949157434655
  0.5062084431868297  0.8597732884496773  0.3306772418503254
  0.3156310479075182  0.7819395210557462  0.2055338843092820
  0.4915552753715331  0.6589386109230022  0.1752919308551130
  0.4626358183182694  0.8188013248590500  0.0201548991666592
  0.3370152794930384  0.4586303651816994  0.8268491184891749
  0.4800252330493681  0.3327748895226212  0.8662224751831467
  0.5415534206215448  0.5433037377298875  0.6816097346213025
  0.3547562897667093  0.4911948451475545  0.5471017373938262
  0.5123260315403227  0.3354910759178010  0.5022321624180288
  0.4936506382480792  0.4956975109841886  0.3414149239719663
  0.3461181202761329  0.5014453865741640  0.2008998433174120
  0.4763863639190866  0.3383435362028187  0.1627796112744234
  0.5255111983914111  0.5250510930881750  0.9939802921788087
  0.3343381007903302  0.1698750411041418  0.8306231684032259
  0.4965744540681056  0.9888806245922066  0.8049235160020166
  0.5047763122958231  0.1339633489011700  0.6571780447738172
  0.3374247489291113  0.1428834891505845  0.4918987878426942
  0.5247353764808451  0.0038566142101337  0.5201202764286952
  0.5179475116804843  0.1950864799469566  0.3340304864135222
  0.3217994656931834  0.1698247582250037  0.2128987674147280
  0.5123214162035903  0.9938101154540847  0.1775698424450518
  0.4927285425514216  0.1483373900576764  0.0127258669291728
  0.0248255452012388  0.8468502646279118  0.8091960222831756
  0.1729794914426296  0.6631848421731141  0.8530162154334826
  0.1932366092155862  0.8110065879136292  0.6821841416174464
  0.9879340896306656  0.8461597454760770  0.5069842993506766
  0.1863954048876371  0.6454885885201253  0.5018552027661329
  0.1257727949648650  0.8124422005498902  0.3185460924041648
  0.9952800420114603  0.8293247784340247  0.1487497062237088
  0.1443654158364984  0.6437719261681021  0.1480436912812215
  0.1796893003726378  0.8160042688575269  0.0165692215391858
  0.9952764900493231  0.4779667637619361  0.8350613409818352
  0.1531938869964699  0.1480037902798199  0.0100299710724719
  0.1355947882059702  0.4581876167386608  0.7016524416632482
  0.0093152152261424  0.4995555681238530  0.5041408875547790
  0.1782352061467419  0.3257544765275990  0.5178385996956324
  0.1554944198092092  0.4758935868900337  0.3573107104743685
  0.0153153882998124  0.4969550687875599  0.1808740996622284
  0.1583633880201275  0.3234938926931121  0.1768997481825285
  0.1944053622722671  0.4898450210949437  0.0144216919467706
  0.9967848246031782  0.1841497310646700  0.8179377939377732
  0.1456905741531069  0.9941522026185832  0.8421357615137095
  0.1689924781509729  0.1545027208308342  0.6775015586190656
  0.9779112267630036  0.1664568174580008  0.4936070292294511
  0.1756612449966604  0.9805558779633106  0.4872445446312671
  0.1576161791730324  0.1675314925433474  0.3603869943482066
  0.0046290347195380  0.1642104743664581  0.1747185157515123
  0.1573750986782277  0.0105807499145823  0.2036867577237465
