Cl O  Li
 1.0000000000000000
    11.7780000000000005    0.0000000000000000    0.0000000000000000
     0.0000000000000000   11.7780000000000005    0.0000000000000000
     0.0000000000000000    0.0000000000000000   11.7780000000000005
 Cl  O   Li 
  27  27  80
Direct
  0.6995618422829319  0.6741233442634261  0.6760630940164508
  0.6465533638918646  0.6791380695649062  0.3264430167793057
  0.6519612834946240  0.6598450308587087  0.0073379126840649
  0.6882005836347820  0.3468809498434676  0.6739089463246805
  0.6694682273707612  0.3347248208993777  0.3281873711517237
  0.6729077868279373  0.3346422711485222  0.9930279555033925
  0.6558035108390040  0.0052554290879796  0.6707517321163843
  0.6650522003113858  0.0023124431100572  0.3343601816043668
  0.6829999898162947  0.9957945758248385  0.9956527792963339
  0.3403165410183133  0.6399973825218251  0.6587433141904386
  0.3190632999766346  0.6466726169117497  0.3433439547968452
  0.3001091848797001  0.6410646588985062  0.9812910283083729
  0.3282517269163296  0.3299011462473765  0.6781252183714411
  0.3221222560950209  0.3187906947137680  0.3485883538288809
  0.3313383143269958  0.3197671623159671  0.9806986837452898
  0.3384214189793008  0.0139725527189419  0.6738814162459252
  0.3544134797865263  0.0016191108548163  0.3453564035538465
  0.3320036313111469  0.0141534959327967  0.9929818622315980
  0.0114167738640109  0.6546756512912808  0.6681160914442684
  0.0072653202237236  0.6671560076408275  0.3184015819884519
  0.0143512006569472  0.6623932230453673  0.0105840151402094
  0.0013595387251687  0.3491731527831131  0.6399713631955025
  0.0082401089465795  0.3443730811251035  0.3251260668795612
  0.9865675655748902  0.3229065022157774  0.0138419760259574
  0.0063149872188060  0.9777129276378279  0.6558118061425248
  0.9926249306159375  0.9864493628093287  0.3470920130777188
  0.0003051819386405  0.0104313052985329  0.0039661356081785
  0.8358271492140049  0.8292783742469337  0.8333314623985155
  0.8258410179996746  0.8328375276050550  0.4911607613173483
  0.8200660981558634  0.8419051258388021  0.1740280798255438
  0.8430205968510852  0.5247096717188946  0.8454195151258014
  0.8412365667769319  0.5202640903102675  0.4885290072445860
  0.8236799068173956  0.5085559526698027  0.1630502686162316
  0.8287580727562420  0.1662370648669247  0.8287318340050892
  0.8306720609962838  0.1833471808762410  0.4989943642563056
  0.8493325961430815  0.1669667232888134  0.1753340986646060
  0.4914071192423127  0.8156590823451226  0.8303331939096203
  0.5033961041714899  0.8164010989383939  0.5176174908843244
  0.4914007630329532  0.8439645376713266  0.1584349824905135
  0.5232371938719644  0.5073989201392979  0.8264502382428466
  0.5084154043242924  0.5134223799146943  0.5002735007831717
  0.5015405768633930  0.5049342088679233  0.1676098974246430
  0.5064919424983262  0.1728004279478490  0.8401222421483918
  0.5105824668618317  0.1837438569227746  0.5186815689136207
  0.5124169822421729  0.1677417860979432  0.1785948340661035
  0.1603984076216004  0.8298359393125453  0.8166489634102750
  0.1621092704386505  0.8194715124277915  0.5203718347783669
  0.1507657444000516  0.8616061360209045  0.1368433947566635
  0.1427103522641232  0.4897303180212940  0.8479464524722444
  0.1606416338431316  0.4994534155272828  0.4911335146364627
  0.1734921786597627  0.4788241963516225  0.1708976467159190
  0.1566998427543712  0.1534182403689769  0.8284778285431630
  0.1511272183826478  0.1703329636685990  0.4942068835607856
  0.1677384832921092  0.1632322984697351  0.1651218665571465
  0.6597637531533420  0.8329037617357071  0.8318773074445045
  0.8640716335128483  0.6869101346807638  0.8328649895052553
  0.8556280773878248  0.8281387909281104  0.6478652893952614
  0.6569650777354216  0.8099911249543570  0.4931139394342062
  0.8299906105762740  0.6608961535568263  0.4683228201173265
  0.8563834541663741  0.8418580008216386  0.3363777315230198
  0.6441773561536557  0.8832953037140480  0.1484867456198814
  0.8182534044114765  0.6699916057526077  0.1729804186299757
  0.8287422024755481  0.8129687458841858  0.0185645662003676
  0.6813011410446426  0.5054968346097767  0.8328225607956447
  0.8455077775249732  0.3118250787210916  0.8207739408576346
  0.8052658468462763  0.5197210999922321  0.6741122235679593
  0.6632979674989440  0.5357438082547775  0.4910224226716038
  0.8193794656033819  0.3626185193638476  0.5073816861469309
  0.8120145217698213  0.5160242152695153  0.3184127964470036
  0.6487540698050591  0.4573607348188613  0.1334973363537300
  0.8371288361142042  0.3335257847560663  0.1614180588293309
  0.8647905734224570  0.5251775616015023  0.0179809260004203
  0.6851959184511173  0.1680837157488936  0.8410148644666173
  0.8213530483668465  0.9937048201775682  0.8372705308434577
  0.8285701394833282  0.1865971066732861  0.6578964808708483
  0.6724030957076996  0.1727439508009910  0.5009187977321103
  0.8168921229878545  0.9963169894332751  0.5158843509704580
  0.8595582390425817  0.1679349824741484  0.3442814349492778
  0.6894251863144667  0.1981559746073241  0.2023701542050332
  0.8411405353845682  0.9963857317615894  0.1720927962598768
  0.8283051219899000  0.1535179964190544  0.0124641537820390
  0.3484266593071201  0.7909250879416598  0.8165335799919629
  0.5443558411683175  0.6702847606059402  0.8434347583891948
  0.4997176403102931  0.8115906225300312  0.6714624534877764
  0.3335282511211480  0.7905126225852520  0.5050266093656578
  0.5348325796457629  0.6529826324186592  0.5377503994196035
  0.5072446472398199  0.8519055079174290  0.3405751576114561
  0.3233641662874525  0.8674253469031837  0.1126168849667240
  0.5024980972937431  0.6925044086254493  0.1819679367228730
  0.4939500483256798  0.8414847253420470  0.9890278078591348
  0.3391788605137568  0.4971729128711082  0.8129547507246138
  0.4915260653766990  0.3281075211310688  0.8484162451691188
  0.5058469694326669  0.4605996890698143  0.6694964414959694
  0.3478043985564339  0.5063569471438254  0.5027676854329780
  0.4781203340122899  0.3421048050627291  0.4966326073823935
  0.4835184156604352  0.5337667032606487  0.3335886916326637
  0.3267322892388000  0.5049252615923279  0.1726070216941540
  0.4965204265169821  0.3166135917945650  0.1845119184268983
  0.5035308801011604  0.5108180344644573  0.0155375024636568
  0.3432050130754673  0.1666422934563070  0.8303538414686867
  0.5004254467321698  0.9906073156230795  0.8292121529085467
  0.4922290135493838  0.1740773377771686  0.6738195140541361
  0.3332953385577974  0.1582025632025222  0.4873663472421003
  0.4922212808360864  0.0023416887580583  0.5625352434979434
  0.5233791762046032  0.1751386020704745  0.3285356873760912
  0.3157294074393863  0.1755146710433519  0.1673039694244764
  0.4767180813538145  0.0192679367989442  0.1907610843626770
  0.4877892620397871  0.1615215571089148  0.0071784735487303
  0.0112212862666372  0.8255862668025890  0.8173215880109190
  0.1435653940005776  0.8265695764390669  0.9652347902924752
  0.1706870660616628  0.8042256786964702  0.6703995900207781
  0.9934902632375295  0.8134503603207611  0.4860323529847737
  0.1833947479879892  0.6699712820768208  0.4838801890780900
  0.1528218364289618  0.7402600265338046  0.2328595949701291
  0.1514825487042863  0.0076763614714433  0.1836081423782357
  0.1500888384673070  0.5026161357513300  0.3237444010520372
  0.9867942244075751  0.8422139485457789  0.1136467427032736
  0.9925769142871712  0.4911855255959630  0.8153012041135709
  0.1418976177810498  0.3336359253137918  0.8011310677241971
  0.1495380749505643  0.5110134170527989  0.6571708203831906
  0.9862729772850125  0.5120136091052194  0.4824177346150427
  0.1401373830065852  0.3344976572642379  0.4660870133537191
  0.1565637004421155  0.3250053468375780  0.1702060951861307
  0.0043501840960363  0.4720268984507468  0.1930736312208143
  0.1525764442379991  0.5066366203556497  0.0094852619898890
  0.1549713586626472  0.6543045215384155  0.8286356712780557
  0.0001316708813581  0.1492164114922101  0.8563809398654427
  0.1525206249790526  0.9840204191324621  0.8154125389908893
  0.1655923921969157  0.1475016418331014  0.6530054384967170
  0.0085454416847032  0.1552110760197910  0.4926624056572118
  0.1959363587627660  0.9693583483224869  0.5012251508290811
  0.1784437872071554  0.1459416074107605  0.3406741039533349
  0.0089618910584825  0.1611422189391853  0.1719890726396258
  0.1683388920427836  0.1474094363119766  0.9870540517675089
