Cl O  Li
 1.0000000000000000
    11.7780000000000005    0.0000000000000000    0.0000000000000000
     0.0000000000000000   11.7780000000000005    0.0000000000000000
     0.0000000000000000    0.0000000000000000   11.7780000000000005
 Cl  O   Li 
  27  27  80
Direct
  0.6579202737866306  0.6779820837135971  0.6753304284048508
  0.6707484402929207  0.6582086046477126  0.3473492562244159
  0.6622901879640910  0.6614650081103470  0.9798804800535134
  0.7035404077771952  0.3049406907619854  0.6716226935922714
  0.7020818803989115  0.3457499839754978  0.3545527037577499
  0.6647214582868599  0.3163632443207754  0.0148969942967572
  0.6678669722116852  0.0005842079689000  0.6594699046945011
  0.6521017106709104  0.0436660329967506  0.3256069514307339
  0.6448463203566311  0.9820640228098972  0.9997680621866208
  0.3193961947917475  0.6719091912526711  0.6604954001281305
  0.3395424432695998  0.6629290819897917  0.3540245715851603
  0.3542238699010303  0.6524042923962891  0.9964592541563339
  0.3253869828413271  0.3468998101030345  0.6606519572083452
  0.3428126117716119  0.3394609601536391  0.3385637603270895
  0.3286323135443447  0.3303996574011370  0.9966344971509868
  0.2934019503051529  0.9899861496280135  0.6599527741787845
  0.3083058037787613  0.0064986010383475  0.3405022827255511
  0.3269937880334943  0.9878863219698532  0.0063781308811647
  0.9927270282303690  0.6663551598054600  0.6583184996359771
  0.0223326041774753  0.6699184426753946  0.3041712224037776
  0.0098791370985546  0.7118190605990889  0.9851099336434381
  0.0203829748598319  0.3331662076462746  0.6881080286341332
  0.9726591367331059  0.3182929813852815  0.3289397508619141
  0.0134529417469803  0.3419282422485444  0.9802125198779184
  0.0039994558795704  0.9920008820151689  0.6728376607443920
  0.0160541736161595  0.9983870161023074  0.3227977093208209
  0.0032869945844280  0.9999766350798116  0.0149122370535974
  0.8412353355038592  0.8537194507680613  0.8209184726230752
  0.8096177687909515  0.8276039322360094  0.5170036499508807
  0.8479478164709232  0.8375419667833383  0.1589647025674192
  0.8209748979272882  0.5118001235971749  0.8345317726842159
  0.8315608609752011  0.4935816081560370  0.5258356230988114
  0.8309015965598352  0.4994038149586513  0.1580646916618805
  0.8353481901037106  0.1480794942689801  0.8310714037263336
  0.8371483333710180  0.1632541242855796  0.5085612274173353
  0.8184635879490795  0.1571144308982626  0.1733886723557268
  0.4951504240194494  0.8314717463594679  0.8415768817792978
  0.5020488544743403  0.8382642264965615  0.4989417320753677
  0.5004849030885883  0.8327946476144725  0.1909307373249818
  0.5197185901838223  0.5090040392454903  0.8208198501644757
  0.4996188796846892  0.5104690442893636  0.5178891063515481
  0.5023281228320652  0.4837431272317360  0.1625463152067014
  0.5037331284984161  0.1795876795255986  0.8275158130842865
  0.5020783683381821  0.1683538790692735  0.5016988694626956
  0.4915521212699218  0.1589366387139838  0.1453348540949677
  0.1687649437861547  0.8406348901606592  0.8460979684774519
  0.1529976478535306  0.8348655573034187  0.4731289634388024
  0.1849965770066647  0.8088136818357831  0.1599368382307554
  0.1533072094192388  0.5096912385937108  0.8377902004173473
  0.1691143936020003  0.4924757491836886  0.4842517630224409
  0.1716290841119384  0.4858654938767082  0.1561074548826767
  0.1866261349992148  0.1672842140534062  0.8464144024414963
  0.1545750403953807  0.1694562158109575  0.5034532642167773
  0.1484891318751610  0.1749464118880553  0.1596771040833235
  0.6599124798386650  0.8404593454231850  0.8495957459541132
  0.8351736170160751  0.6905830056139273  0.8343457017401590
  0.8317652313245483  0.8208823825371203  0.6623025068859463
  0.8371540013284088  0.9843653828002898  0.5112321308815038
  0.8125191961792843  0.6612565082491868  0.5080463339737943
  0.9396467841466050  0.8377967009826430  0.4159512975327277
  0.6536020594776559  0.8286962285960298  0.2058923432358610
  0.8391570574703053  0.6842862288360662  0.1484518055630845
  0.8412413273445296  0.8695788813723427  0.9948837859366246
  0.6772578059583454  0.5543641759334584  0.8209281891214592
  0.8525121415868867  0.3000124827815346  0.8388549666986124
  0.8105346013843178  0.4803247011585454  0.6745133113761521
  0.6595509856133638  0.4878894404901308  0.5194184427118065
  0.8440498002316538  0.3370575842783148  0.5077542722265300
  0.8535549647759679  0.5126039614114152  0.3601387186788089
  0.6761043766293247  0.4841886286826502  0.1991244782280074
  0.8492022973831392  0.3133850565952077  0.1715322138832014
  0.8267779956164136  0.5124294692945994  0.9960859571688679
  0.6587396984836956  0.1818396602104746  0.8162011126575608
  0.8003909819253439  0.0021044612455716  0.8420473222427315
  0.8513753922467587  0.1476061793414412  0.6516233059389550
  0.6785476306334340  0.1448549325812586  0.4908046909889547
  0.6555705005940589  0.8357729772818878  0.4998909529966812
  0.8176505599467843  0.0016965028957953  0.1989626782872060
  0.6612474862312399  0.1242957228007266  0.1505508020051723
  0.0079118249026258  0.8098872235725640  0.1715707155080486
  0.8282383853235543  0.1499936140866040  0.0092999926475773
  0.3392442682254355  0.8188815935781800  0.8750364536733848
  0.4900973185493520  0.6668993242003834  0.8468956929947924
  0.4885491564734742  0.8094483311219089  0.6848542972085543
  0.3321056580761109  0.8584517093644314  0.4656512272531653
  0.4843984707908067  0.6809986516077825  0.4815991589635625
  0.5163238075900330  0.8133216512611184  0.3447537365935445
  0.3296020808111998  0.8260630575339200  0.1657582150824660
  0.4901772367485617  0.6489369599478981  0.1712197677320354
  0.5009410522023151  0.8327517330799424  0.0271533549944914
  0.3339542826218141  0.4984087645532924  0.8531971660802059
  0.5315553904570575  0.3445073652883924  0.8456819404049697
  0.4778716154282904  0.4768105270908607  0.6775951822365609
  0.3363238936652535  0.5179483594059879  0.4980570448974890
  0.5030033789843551  0.3148668630842034  0.4923980752677288
  0.4855555033213116  0.5150658791895043  0.3560232957881939
  0.3335209875219950  0.4853790211909407  0.1330169960595438
  0.5045700833779826  0.3177825008514232  0.1650708335499009
  0.5672519431916397  0.4952379877326683  0.9837094357744496
  0.3506662954738964  0.1531542290693347  0.8598349919513514
  0.5148539442969680  0.9818263974917967  0.8318229748763493
  0.4708108384795640  0.1624682316292926  0.6732487091114523
  0.3348568238654736  0.1901785615508187  0.5143555397725050
  0.4876296113576424  0.0056229243945173  0.5335829111437893
  0.4906737093305829  0.1533856335511651  0.3357352876474576
  0.3411024270851781  0.1833037948180343  0.1670221392165493
  0.4846083471559048  0.0066664276119683  0.1755002091535416
  0.5283242498902216  0.1773442615049237  0.0009515941575349
  0.0067335769950586  0.8565242799682916  0.8300982964131591
  0.1886903645955217  0.6665319595906418  0.8288696451924807
  0.1375334358210253  0.8403689819882124  0.6087499450707753
  0.1577696125156935  0.9891344021488800  0.4685674318161241
  0.1284913332741844  0.6829349877941077  0.4728300191718495
  0.1670769754684223  0.8096332684744878  0.3143348618979638
  0.1756760461743549  0.0057447561366180  0.1572288602524398
  0.1829107079587481  0.6595866875164573  0.1860598971704075
  0.1777520975103626  0.8397550612319726  0.0073243350068535
  0.0054364124416659  0.4946386822094146  0.7899928015659399
  0.1558383268842575  0.3501798975304805  0.8611235615787318
  0.1407370058236960  0.4976440761304582  0.6441801847788114
  0.0129638147365241  0.5149245851088344  0.4945961091438676
  0.1590275144450491  0.3287246342932310  0.4940432808712183
  0.1870572641296024  0.4965265573600490  0.3146451218369932
  0.9699106100864032  0.4974957375884599  0.1592917538302188
  0.1273692092883951  0.3228175498286899  0.1631517643909125
  0.1370729648897880  0.5401203156125950  0.0020845162031089
  0.0023368251026114  0.1676165790262598  0.8559738174351219
  0.1753373857202567  0.0162229181673106  0.8164001389327964
  0.1888853423297640  0.1827849945324345  0.6876123252749007
  0.8195079397052980  0.1612796103576866  0.3433815241092402
  0.9911433452679503  0.1728829312718322  0.4955546012240560
  0.2249103329524362  0.1871460828905293  0.3306968783811663
  0.1821513636100252  0.1695505670588089  0.9974674911025173
  0.0014538960352884  0.1462163860678730  0.1925583722605601
