Cl O  Li
 1.0000000000000000
    11.7780000000000005    0.0000000000000000    0.0000000000000000
     0.0000000000000000   11.7780000000000005    0.0000000000000000
     0.0000000000000000    0.0000000000000000   11.7780000000000005
 Cl  O   Li 
  27  27  80
Direct
  0.6545402075163500  0.6637884590396255  0.6650833507175333
  0.6739936899021158  0.6736411503428134  0.3291381518500386
  0.6415178324986064  0.6524031115725648  0.0202671065588880
  0.6720835477760179  0.3395688672669822  0.6579324937317036
  0.6575280712548921  0.3274062809000077  0.3612411993561705
  0.6723415208081176  0.3349604130541904  0.9944907577114813
  0.6919311556274916  0.0062843758661978  0.6433440620868914
  0.6500923589247665  0.9870536922823134  0.3247973264396158
  0.6514374461844150  0.0078127506979703  0.9849149024784999
  0.3218758045709751  0.6735474266188161  0.6844847688661241
  0.3431051389780878  0.6669477784892384  0.3411908810571569
  0.3634372357302422  0.6624611448749380  0.0180996341065731
  0.3204009413297830  0.3482873598108677  0.6481213404591082
  0.3241600318848636  0.3248693031719010  0.3485994276772169
  0.3461675768417283  0.3319174689154330  0.9816260600811556
  0.3292687643082103  0.9957148878497899  0.6665316757725136
  0.3300564889292969  0.0011083794645838  0.3768265437351985
  0.3579755919885004  0.0052099803832136  0.0002353926104448
  0.0037451662641876  0.6709787488147309  0.6984873766291907
  0.0080824324377512  0.6669610172182867  0.3325163354257548
  0.0075867701965132  0.6806558548950347  0.9835997238154401
  0.9928193917746237  0.3111462066790191  0.6553427635144529
  0.9658082385568132  0.3537309875451888  0.3337327600526329
  0.9964475926830954  0.2911376085949425  0.9734876564076647
  0.9959115857819814  0.9712217272331650  0.6820455229175980
  0.9923799315059731  0.9911281477335824  0.3125499231388295
  0.0102572681739979  0.0005714626696962  0.9779121778121117
  0.8236644447997284  0.8113915025956769  0.8359648167336888
  0.8296838155487215  0.8298866143574842  0.4995822742253818
  0.8286949998964925  0.8407236679178084  0.1563888914465760
  0.8366220431615776  0.5087614439223294  0.8400718996298575
  0.8268444118084077  0.5151760737285085  0.5019496585712747
  0.8568276634930982  0.5059291656141639  0.1540826097056260
  0.8233914111951333  0.1830316856310314  0.8382555621985769
  0.8293681912928758  0.1582769930617399  0.4949615124479701
  0.8375604139930289  0.1700624072284163  0.1477668553918582
  0.4953822635964341  0.8308585071083610  0.8386691611464628
  0.5155905559650102  0.8176124906861415  0.5109878239119996
  0.4972357261486243  0.8452827299304805  0.1747892673491377
  0.4952053018696124  0.5075706060745296  0.8176888929812645
  0.4937989196993237  0.5128742757467086  0.5044699967958985
  0.5187670412284350  0.4902098145282541  0.1643760251813556
  0.4883500693471211  0.1783918552255408  0.8276645789598318
  0.4936060472063979  0.1755297998983687  0.5107129684639574
  0.5229080104127184  0.1629680476321496  0.1736980033670705
  0.1867177938443029  0.8281910044186269  0.8467723159447610
  0.1668016644365158  0.8407468255722906  0.5148690387061463
  0.1589041755206826  0.8364185303962423  0.1472459296222369
  0.1496350510376366  0.4790206998431437  0.8457450391530948
  0.1636045720994345  0.5298943420829793  0.5034638533882178
  0.1627717163676240  0.5007556160495127  0.1536734540314800
  0.1835382924178380  0.1717232199574355  0.8158150662678775
  0.1607192072974929  0.1589324417272195  0.4940712382835206
  0.1788544138863391  0.1692650470797654  0.1896639510848885
  0.6698521134366834  0.8264894026390992  0.8369452923914714
  0.8633501869167516  0.6363432377037000  0.8368376821718669
  0.8121820538050558  0.8193583835041373  0.6661445137973145
  0.6691824847563744  0.8381819938821492  0.4837908591097895
  0.8024480657237947  0.6716452196330651  0.4956710597424740
  0.8363647178960368  0.8373286424115595  0.3350355198161955
  0.6707363147896429  0.8394834378698890  0.1826356029495192
  0.8346154243036068  0.6778610255910581  0.1796216868496845
  0.7854660556728622  0.7941818835700952  0.0034727584021059
  0.6590346953001776  0.5286552861119478  0.8518110490943319
  0.8055280337699368  0.3452299016526491  0.8673908064867890
  0.8212300571003948  0.4981815132004965  0.6600589898884892
  0.6543187928094207  0.5102334529421211  0.5112713837231777
  0.8374644635714851  0.3445784104359905  0.4842916231452637
  0.8251709069033742  0.5396299090952277  0.3303304066871861
  0.6903642083214045  0.4898245148819119  0.1164168769959094
  0.8610447047626476  0.3297205281453623  0.1504604812923522
  0.8803574598634828  0.5199765097552075  0.0085430404399523
  0.6611330540970587  0.1279637954074394  0.8282010916122777
  0.8421601233572750  0.9811869034523474  0.8332507558225308
  0.8318464651765782  0.1814445158626823  0.6553051120832143
  0.6621781849545061  0.1706306604422505  0.4958485882650349
  0.8224699632650345  0.9946796948953125  0.4934444431669217
  0.8103522752176769  0.1744747703581925  0.2998102577386553
  0.6893356359966203  0.1486667283932372  0.1370299424930061
  0.8609325601771303  0.0048958661066414  0.1492260609007584
  0.8685596065546043  0.1437048365517212  0.9705409562096730
  0.3537809796360544  0.8054912399227098  0.8573232995984911
  0.4742922394849045  0.6627020735494554  0.8539760468759645
  0.5108511314510817  0.8236239262947875  0.6736699013104439
  0.3326716642266912  0.8192614614327551  0.4983608294076718
  0.5182896372744927  0.6660552776272424  0.5030512665755800
  0.5046198600664940  0.8453785184103846  0.3286607681388014
  0.3164049706411783  0.8511989438549616  0.1555837985846276
  0.5065975318563618  0.6711272897837790  0.1534977675950713
  0.5036414086792080  0.8428224315687889  0.0147106244792067
  0.3337980493018761  0.4982653179990600  0.8296524125875931
  0.4900446671507303  0.3393327563562468  0.8155149884094464
  0.4889278366322898  0.5030596407288590  0.6629505793222080
  0.3302650495185721  0.5285246801795007  0.4985921630400350
  0.4653550042711453  0.3427082678949073  0.4814016126425322
  0.5401675884341588  0.5153236430477180  0.3226763970266962
  0.3379233911179250  0.4759836868169417  0.1655357904770312
  0.5152561059935452  0.3255140738105106  0.1960140673903377
  0.5092214722450069  0.4712547480241862  0.0078323956112884
  0.3426610140311113  0.1603686009165147  0.8451906319494581
  0.5068458693608974  0.9919815795424074  0.8420886398403118
  0.4850585650340737  0.1737064989765792  0.6740296951485277
  0.3288539305553211  0.1529182935961079  0.4984094118995927
  0.5070597537815787  0.0013715876081095  0.5217763354658127
  0.5063376155245853  0.1650177024808803  0.3465385988553443
  0.3706750958620201  0.1602862131072989  0.1355379741661168
  0.5255466874905795  0.0079406504337972  0.1638446642973239
  0.4953179727654589  0.1964256357411497  0.9979358241332853
  0.9948893930721844  0.8367404703760377  0.8556555436216684
  0.1487628839727800  0.6632134852477424  0.8267999725452806
  0.1840786309415227  0.8567551615143093  0.6796917011840329
  0.0195004320205082  0.8203446890609501  0.5568315183362199
  0.1583949803985896  0.6922416456266790  0.4880157950342762
  0.1496539374813708  0.8686826491057967  0.3340747403103458
  0.9940407942091702  0.8511557054371522  0.1227614670429026
  0.1767040718231025  0.6833599563953491  0.1658328116870122
  0.1818320145734629  0.8066260459631609  0.0010102208493234
  0.9903570432064697  0.4401930055042628  0.8290599490986186
  0.1910110488980532  0.3312505730002945  0.8273707358545307
  0.1580885058453890  0.5085203128207623  0.6744236991580057
  0.0095377203506556  0.5229480578735461  0.5240306035763499
  0.1782939136285073  0.3269311643717268  0.5280174852904244
  0.1742172757606091  0.5248029779004941  0.3402300813086023
  0.0089351614451631  0.4855436686063063  0.2039157667888040
  0.2011968946395882  0.3332493174460331  0.1694843325078981
  0.1534459932814902  0.4968753729052045  0.9891426078580599
  0.0135321741015568  0.1840290234620515  0.8027172264460166
  0.1795094678190719  0.0250197622101184  0.8852778273913868
  0.1965714163119191  0.1517132453694212  0.6589934138990252
  0.0147895484554142  0.1401502276808649  0.4778746046998985
  0.1674209495095718  0.9987730198686794  0.5258073462767152
  0.1610354590771927  0.1777624285572962  0.3423936216154774
  0.0295621899805954  0.1829197839579738  0.1498990903555018
  0.1552059952648477  0.0196526405140511  0.1429992732753207
