Cl O  Li
 1.0000000000000000
    11.7780000000000005    0.0000000000000000    0.0000000000000000
     0.0000000000000000   11.7780000000000005    0.0000000000000000
     0.0000000000000000    0.0000000000000000   11.7780000000000005
 Cl  O   Li 
  27  27  80
Direct
  0.6695307359065371  0.6570857491416117  0.6825982694294290
  0.6513592645117425  0.6439832939830187  0.3452514859127228
  0.6541965225253299  0.6863545143117863  0.0255998654732753
  0.6895659126622351  0.3244800702833462  0.6808876798888960
  0.6552631106500423  0.3150346217186849  0.3475818261085262
  0.6643517208115448  0.3321845854927288  0.0092903933589064
  0.6799502229488014  0.9904725265409224  0.6476291585405417
  0.6526128952303499  0.9925164495412246  0.3331763075457960
  0.6873358953122483  0.0038018432755421  0.0016692436181310
  0.3461241316507792  0.6470492135919136  0.6742147126819278
  0.3050680191356037  0.6941625304716654  0.3388408439194223
  0.3345804862308763  0.6849420593300075  0.9830564657567346
  0.3739665958289775  0.3289477972112073  0.6862792029006319
  0.3151584407659241  0.3219489426969750  0.3414307968064276
  0.3489026048491423  0.3273323686267242  0.9794174523971800
  0.3312135171137119  0.0114291847536993  0.6630836135892528
  0.3096483157457864  0.0022569945192876  0.3224952037845379
  0.3415794419586335  0.0136795574086995  0.0025450901109075
  0.0000939823765658  0.6880621889028041  0.6781503803524357
  0.0091491553849701  0.6582001100500462  0.3420585230874549
  0.9824677311602757  0.6853613262352845  0.9943164716598085
  0.0165757932900096  0.3345430023203214  0.6631138561904736
  0.9904287378887883  0.3284499076398384  0.3349419977292493
  0.0004005818652112  0.3312940279304097  0.9705369676067959
  0.0007315513565910  0.0040836074955311  0.6562888662692030
  0.0025407491225715  0.9934025486477748  0.3067704478964021
  0.0022927355013156  0.9878858105889582  0.0149741697910192
  0.8452966856604146  0.8504276299101544  0.8275995181160694
  0.8321647571233897  0.8228188475180952  0.4896321337504843
  0.8293272157119325  0.8285315008014280  0.1649541054384528
  0.8560906627445688  0.4898795891246782  0.8328065896001459
  0.8488505759152447  0.4903395438669388  0.4906018807746344
  0.8110339642040565  0.4897342060176051  0.1740017443651022
  0.8504111265265620  0.1474915421202803  0.8142742312611992
  0.8418635228980080  0.1513340731052349  0.4807814968285740
  0.8257474957655648  0.1683104253201291  0.1692677550174574
  0.5134571324570359  0.8341105522319786  0.8344148320243658
  0.4825825944726476  0.8247036862629845  0.5138012757145473
  0.4735226884667882  0.8502381581916632  0.1766633159422809
  0.4987249371215480  0.5050894313265679  0.8456071045714509
  0.5222913323025131  0.4915572235415250  0.5022321244863861
  0.4729226137207459  0.5203071276979848  0.1783170032391516
  0.5138472093817504  0.1804573944402215  0.8319800394709327
  0.5096429210163302  0.1618303306060867  0.5054599452496072
  0.4887368221221309  0.1706624960597146  0.1753672362713575
  0.1673414621824288  0.8308948770917377  0.8275938501586786
  0.1657581992561382  0.8436803314905471  0.5024970205235845
  0.1680041476149341  0.8511704562116240  0.1754876803659113
  0.1726151625299042  0.5162285060449998  0.8318329964620521
  0.1735692619431148  0.4916677082252350  0.5028603770777424
  0.1664869163922460  0.4938388597891777  0.1556433720753471
  0.1665203978262615  0.1641418147222133  0.8368443614745076
  0.1432135748510885  0.1708058751389960  0.4956364844123918
  0.1448877680080909  0.1708029804321858  0.1376422329214975
  0.6939054627822450  0.8674174131597943  0.8265089221432662
  0.8168445921794295  0.6535536400373264  0.8169747700454395
  0.8147737634613035  0.8456463029969441  0.6507885994463841
  0.6686152393316986  0.8184529009108085  0.5104719985140316
  0.8387978866869826  0.6555260487239029  0.4998913390548197
  0.8528855947817308  0.8125713424972308  0.3342285233499818
  0.6802434182875435  0.8244259563508368  0.1911587930858845
  0.8129204223653430  0.6602720723596506  0.1601009675293722
  0.8143774112980491  0.8247524306965451  0.0002662195228209
  0.6967440568143602  0.4753858933391116  0.8439414538359447
  0.8781167500191833  0.3183853966718758  0.8008853823127329
  0.8697354604546383  0.4972406463588853  0.6689199902853440
  0.6747161476962987  0.5232472591382147  0.4871166132896426
  0.8224750600805963  0.3383883267985615  0.4997878988324382
  0.8381076104476074  0.6671601790350082  0.4991219138390233
  0.6375244687728525  0.4648314684255372  0.1830351324274548
  0.7985414622315296  0.3214770245160788  0.1841866184567987
  0.8618387812470040  0.5042350677207298  0.0177644330998566
  0.6831391777184856  0.1570112105627031  0.8300096955402628
  0.8992965302845367  0.0022670818703526  0.8351141769955664
  0.8614063160980886  0.1320823700025803  0.6477770922284406
  0.6642978752163325  0.1700271180362098  0.4736794247617148
  0.8315235492008541  0.9892041078937518  0.5037755497693015
  0.8520528908702074  0.1768471889801734  0.3274679254732113
  0.6603204266027727  0.1448007299557768  0.1988124788630949
  0.8367466529072646  0.0056806898634688  0.1750672596264512
  0.8120362210123834  0.1528552212913341  0.0102457446569022
  0.3238088975784156  0.8153292086219375  0.8467794810723210
  0.5029303590784465  0.6838330829810942  0.8412741940586704
  0.5042394548086636  0.7845300139854363  0.6777911937955008
  0.3319708371919380  0.8107984054253994  0.5485195390034835
  0.4956827824482844  0.6592268200459735  0.4662594612560536
  0.4743576190758579  0.8550371367436044  0.3542315546901924
  0.3123072557713194  0.8573605134488991  0.1811211846728230
  0.4597116171781196  0.6774771165339096  0.1745121641708456
  0.5126863307373019  0.8624759259648849  0.0189381342327329
  0.3407848753032680  0.4860431107085087  0.8199246179840537
  0.4862838921050473  0.3491890649461746  0.8356933612700826
  0.5155000667277176  0.5220210775275426  0.6605100775359758
  0.3173007262325839  0.5310694856769805  0.4823878769239369
  0.5218267622235201  0.3293593921313017  0.4979816827536410
  0.4722331876749791  0.4662822630905236  0.3344696949369588
  0.3100799307010932  0.4557030206206595  0.1183163301837862
  0.4576273473038953  0.3199826473072985  0.1727421622912343
  0.4878161434148210  0.5287145708373472  0.9997267466910661
  0.3410830098620223  0.1543565417479182  0.8154500085365036
  0.4845792134343646  0.9772500315092902  0.8038191170581930
  0.4999280825339679  0.1808419046210701  0.6647414506406419
  0.1604750759295007  0.3262533109957522  0.5262068150265359
  0.4976268918333170  0.9934162257579027  0.5451995329618425
  0.4331737953350457  0.1592820776913134  0.3687761811214559
  0.3133850583545834  0.1534665003745758  0.1540657163783324
  0.5019229606230577  0.0211546898764102  0.1994494155748822
  0.5332332835599762  0.1428386754127909  0.9782652148574142
  0.0050247871165132  0.8220481672545910  0.8446502723930700
  0.1814733297380623  0.6758332469489479  0.8255975145948311
  0.1670887522536205  0.8764293034694717  0.6525238041161571
  0.0158719949237163  0.8151135023578091  0.5335993699096717
  0.1441615002392841  0.6907763307847822  0.5186736948001092
  0.1660257066022774  0.8346135429649991  0.3404476086261794
  0.0070264541027814  0.8213811296405176  0.1702758316034625
  0.1845448363335281  0.6508472308686457  0.1734396044481680
  0.1670635298432316  0.8284519874563175  0.0158835201745620
  0.0197571405981337  0.5158868901559764  0.8293192573592475
  0.1659802516082740  0.3192193758738120  0.8382080720227256
  0.1754495663220913  0.4913015986632014  0.6658021683809138
  0.0154069023299012  0.4802453975789044  0.4493889885094894
  0.1193540956662585  0.1933115728223941  0.6622408692960658
  0.1682547624237783  0.4599531789555350  0.3119168924791024
  0.9096267269981042  0.4985463818000780  0.2918460480772523
  0.1319082265540575  0.3263151524594264  0.1465368167558912
  0.1669273166815085  0.5008779365581794  0.9905539082156570
  0.1367578219897689  0.1208642070358422  0.9977639065514733
  0.1832909424597560  0.9814946749722314  0.8151173804084856
  0.9971780903103651  0.1608289543554256  0.8462909841160567
  0.9800881214857518  0.1728984040368468  0.4796643829122640
  0.1687180572123585  0.0215186992578034  0.4973925390682809
  0.1706431789401321  0.1663491197572271  0.3172609665903957
  0.9702147902145120  0.1918792395043377  0.1550831147299749
  0.1491271369812190  0.9970605613674020  0.1900716181302207
