Cl O  Li
 1.0000000000000000
    11.7780000000000005    0.0000000000000000    0.0000000000000000
     0.0000000000000000   11.7780000000000005    0.0000000000000000
     0.0000000000000000    0.0000000000000000   11.7780000000000005
 Cl  O   Li 
  27  27  80
Direct
  0.6693175186751024  0.6720330395269263  0.6878900128624575
  0.6790870529462857  0.6648523043085655  0.3095388976698815
  0.6828830864379311  0.6585152850332299  0.0035485411158252
  0.6524631591216921  0.3250397366571214  0.6510929857150481
  0.6831605734376189  0.3415036346744231  0.3429584497362485
  0.6705702182292815  0.3423731803089864  0.0074942339859680
  0.6470850367806441  0.9956173550487946  0.6256417113037839
  0.6766949320149229  0.9728175659706670  0.3356832418138064
  0.6490210895691000  0.9749695426323297  0.0071366238296825
  0.3175357027318241  0.6741052852344003  0.6394277221237034
  0.3180867698891414  0.6604632000467962  0.3291228038037499
  0.3132395124858536  0.6689458650778161  0.9900246594083690
  0.3391776441942795  0.3376412455958958  0.6541653020187126
  0.3323904474031824  0.3407780146721753  0.3274372747319660
  0.3427268583842620  0.3343940728067261  0.0184986276624090
  0.3462216399405884  0.0248617780499539  0.6503335603955053
  0.3431534936341470  0.9748786427656753  0.3163219244637555
  0.3306822262591305  0.0030698273897558  0.9904900075663343
  0.0253855049683050  0.6667056049191160  0.7159130419689615
  0.9921457859299425  0.6831726000702777  0.3182894951438448
  0.9929032344228282  0.6849562252903316  0.0070880862512633
  0.9815894702212072  0.3478740139275442  0.6792910737341070
  0.9986464782288733  0.3347675102279577  0.3449338948285701
  0.9786777152578339  0.3297081092766156  0.0173365331904933
  0.0298773308364293  0.0067268934466336  0.6696525502494705
  0.9908327447700103  0.9694909253824731  0.3284139042758049
  0.9827969766713782  0.0141372473606962  0.9965094289220898
  0.8221035853817297  0.8512971716115649  0.8182282557791872
  0.8425977857152599  0.8289365938800753  0.4956579991218467
  0.8349389987763978  0.8329150951142933  0.1698548812677481
  0.8445575224685270  0.5044376932642968  0.8404314262368533
  0.8357714597754616  0.5077094406972964  0.4921939055062504
  0.8507477416474419  0.5010555421184071  0.1761174478742150
  0.8546292398394579  0.1693625562203421  0.8310794584837295
  0.8612642317319080  0.1652264452852508  0.5012183058075976
  0.8209693461370174  0.1490304291041302  0.1968416660642856
  0.4967607663958762  0.8366122227494700  0.8112011222061158
  0.5126667552215818  0.8101946830593100  0.5071646813624796
  0.4760323579658774  0.8261673918405869  0.1680289285516080
  0.5021390506785638  0.5033624007764487  0.8168572578571809
  0.5247318527214350  0.5042010155578224  0.4877912791175633
  0.4835537779088333  0.5194871322720280  0.1737091327788787
  0.5257209922569436  0.1387014674384784  0.8236405073208093
  0.4930213315073186  0.1796395447409911  0.4897345787943972
  0.4991379482109733  0.1568468561079230  0.1651026026361657
  0.1717811622652460  0.8530222549288542  0.8353754463026506
  0.1610164864965316  0.8374605540292279  0.5024884545734584
  0.1658936626177606  0.8359078575874376  0.1665620915429354
  0.1549583408461742  0.4702449305963045  0.8375197155543970
  0.1558835539193968  0.5073281895919476  0.5046858406830382
  0.1637730672094730  0.4901502706423442  0.1786067135467145
  0.1611864543687872  0.1806982179680612  0.8343160240954967
  0.1601857258846851  0.1633056554963401  0.5103435957505005
  0.1576245986095528  0.1722996816188843  0.2010140924120878
  0.6699247593387032  0.8311721982166329  0.8307555752042572
  0.8538431751201786  0.6818505085234715  0.8203354403954342
  0.8167229124598558  0.8480598772624190  0.6642816343113909
  0.6743713123971686  0.8194420365131639  0.4721122110145380
  0.8612396166026681  0.6602662790128770  0.5091396001444720
  0.8336578784644452  0.8254273995178126  0.3355602066530169
  0.6716140130682010  0.8067565001060717  0.1481380822823247
  0.8380840673617137  0.6670349537289293  0.1411227906916592
  0.8594074898615131  0.8467752752052121  0.0021566580992614
  0.6956363954212530  0.5333182843240238  0.8379318570275255
  0.8274790761711318  0.3364134243261212  0.8594644271550442
  0.8506955964394467  0.4925541323425879  0.6558909926171511
  0.6726552978117045  0.5204403207635150  0.5196358070385614
  0.8162104481409109  0.3536345209654191  0.5126925997202834
  0.8379640686066694  0.5217362182500938  0.3325580313220632
  0.6778224101961761  0.4939264662831220  0.1648269071158674
  0.8253710008758663  0.3402059963152172  0.2067774941567729
  0.8681695851918978  0.4777544883141497  0.0197541877638338
  0.6874031205154271  0.1457219107975580  0.8525406123481245
  0.8387975012555714  0.0098073738862451  0.8476491651198940
  0.8554523891942368  0.1737647069054625  0.6730451871165329
  0.6795444166223105  0.1604712415828005  0.5066805973158984
  0.8590297609868285  0.9964360668230939  0.5007412257369349
  0.8870127905083178  0.1554257372484183  0.3542505997896411
  0.6482443364941054  0.1476394516323214  0.2417759569678626
  0.8147122450608917  0.9922040475333301  0.1970769875095273
  0.8280925920732722  0.1389011009948631  0.0238299210358538
  0.3441270867722409  0.8503513514646859  0.8341775639935221
  0.4611744149471343  0.6765848951366303  0.7862107741869507
  0.4959234471476204  0.8450117307484853  0.6509497888201115
  0.3257011645760107  0.8084802069194232  0.4789672006245697
  0.5156131214149414  0.6614523800677146  0.5197784371377590
  0.4979997818814975  0.8177797865520922  0.3453295992252653
  0.3122247456858568  0.8036312693716234  0.1639715414961335
  0.4825443146975381  0.6689414521681332  0.1747428467507246
  0.4923870870752919  0.8643593033018636  0.0043918844665623
  0.3119103562350141  0.4654226324482411  0.8563201682779268
  0.4839492798784790  0.3259663059915768  0.8493276902157593
  0.4697173222681360  0.4920957970167246  0.6624079290542334
  0.3493213648667781  0.4688481839535801  0.5110863815665603
  0.5151487942484080  0.3435972566783421  0.4898700024906266
  0.4814985765589418  0.5009471626760138  0.3289860440889927
  0.3320636086887849  0.5007257479690845  0.1373653701597384
  0.5281357040470495  0.3101617128750511  0.1364397319897115
  0.5335314375414185  0.5182855657905955  0.9675805324424661
  0.2736377573517387  0.1691263440960820  0.9202310841663617
  0.5171592592203225  0.9931832788973418  0.7963110742572951
  0.5260291671973615  0.1734704184606519  0.6719389232900854
  0.3385056268747844  0.1734512891044581  0.5066807187721281
  0.5057814015540996  0.9855310031510492  0.4888023617452560
  0.4479882359607977  0.1625544588363665  0.3198957942683878
  0.3198218531026845  0.1639771768695636  0.1518850676998350
  0.5252884056517984  0.9606046764818496  0.1607823134499319
  0.5119674912212010  0.1382576461320765  0.9991388330223955
  0.0078697624739369  0.8625939774870998  0.8245637366089453
  0.1695846263492747  0.6650673223207251  0.8500640388516394
  0.1830464907345573  0.8399633620713503  0.6757118800980684
  0.0133434322801827  0.8531838726853109  0.4975300849626065
  0.1481103349693562  0.6596877829903295  0.4737229635341737
  0.1716499085662399  0.8372311636965415  0.3489223554736320
  0.9983874315426798  0.8430366905102630  0.1362460497885870
  0.1615820676733102  0.6656486118365581  0.1584360422453195
  0.1769536187238289  0.8371705975232802  0.0097816659730866
  0.9882874941014174  0.4725972138842921  0.8337343297255642
  0.1393178350961111  0.3180698089682870  0.8495127895099776
  0.1673532932234651  0.5099034665178519  0.6770099637967836
  0.9961637832118893  0.4939487737439957  0.4893746635000836
  0.1738840149426301  0.3239447885027504  0.4833613250771707
  0.1946977261313598  0.4986308304320476  0.3264463538384204
  0.0053422127856686  0.4981919685883625  0.2030803665215964
  0.1918392335202620  0.3281948051386911  0.1742474470320667
  0.1408559669116777  0.4464481329474049  0.0049733153650377
  0.0213267818943026  0.1546723644976607  0.8428819271293408
  0.2057307290757646  0.0150875626532470  0.8495898737304921
  0.1953494805031830  0.1553666791566770  0.6683719562478468
  0.0072197312623741  0.1962786028843723  0.5203230873576016
  0.1541458391542080  0.0033263938701526  0.5158371015098603
  0.1734169954963359  0.1635884966914918  0.3411999659557635
  0.0039498834807188  0.1965456041628873  0.1941538396987647
  0.1759614022971655  0.0086076773246840  0.2015705036435163
