Cl O  Li
 1.0000000000000000
    11.7780000000000005    0.0000000000000000    0.0000000000000000
     0.0000000000000000   11.7780000000000005    0.0000000000000000
     0.0000000000000000    0.0000000000000000   11.7780000000000005
 Cl  O   Li 
  27  27  80
Direct
  0.6468048445053907  0.6701209173497475  0.6423954084478362
  0.6764808524140918  0.6723264410267243  0.3337355337897324
  0.6555673042044646  0.6933035513299479  0.9850480012805151
  0.6858506337475863  0.3615013661599382  0.6670739783250991
  0.6648198397907902  0.3430475090308537  0.3320752676137473
  0.6609293133523587  0.3618084884796979  0.0000744556654011
  0.6792180709797323  0.0219882690857764  0.6524968825950684
  0.6641240575356638  0.0046708339343254  0.3406161911496624
  0.6716899304587274  0.0105689157721247  0.0176319458723650
  0.3304644422432904  0.6629494128048515  0.6430591262582948
  0.3161922016500631  0.6670700987987580  0.3136830495212874
  0.3348686273202600  0.6609383000663781  0.0183276345049809
  0.3229935076065222  0.3228286904556947  0.6821568987668456
  0.3149567286378109  0.3001080354882518  0.3123659174371984
  0.3197655856297762  0.3336265136537926  0.9970321456728671
  0.3499005563881946  0.9807166299604791  0.6726992236083844
  0.3463054115006419  0.0056499612381819  0.3344576518040209
  0.3292423699017264  0.9875707390128448  0.0314026051309051
  0.0002894252405487  0.6667073090403391  0.6648699930936999
  0.0067992753866506  0.6631869002195245  0.3473648660732072
  0.0013491900712989  0.6607658322200590  0.0091066503372692
  0.0018765645657673  0.3398434127178538  0.6534917710587875
  0.0161883012067234  0.3268111997454963  0.3228277724609586
  0.0032877499503940  0.3311500616135373  0.0056032795481916
  0.9879021245266625  0.9549747285036654  0.6859443088661751
  0.0018397247404810  0.0087278873014604  0.3342106705607183
  0.0028008923369399  0.9980936259502267  0.0065096321136458
  0.8333110472044403  0.8277611037366464  0.8380279941958567
  0.8556194797279348  0.8471599308190011  0.4986322845677986
  0.8302786090295606  0.8103476001866367  0.1718958565584906
  0.8431247915432715  0.5046075332929760  0.8432013818188679
  0.8436556362383266  0.5204331990653724  0.4910548733029038
  0.8162737340835379  0.5117140587549280  0.1606704365820219
  0.8363749020574284  0.1675137734670051  0.8222763357528196
  0.8400472526217253  0.1682857796276848  0.5106247512422301
  0.8512437356514437  0.1885097196072005  0.1677680856178457
  0.5048656693137016  0.8316478650319538  0.8278923908480499
  0.5128594730197679  0.8362440116801256  0.4884245362194892
  0.4969244156697296  0.8238557191527689  0.1733327444851647
  0.5050876103309601  0.5042974150528813  0.8385254789131260
  0.4923457182332394  0.5051765152441892  0.4914348288751348
  0.5090943703813120  0.4931751822649820  0.1743676527766036
  0.5060627824000412  0.1768156708893927  0.8361106861522004
  0.5036324027562908  0.1740288576965831  0.5261711891423114
  0.5060560618219921  0.1537530255428845  0.1566405694839499
  0.1538855454579371  0.8168616216742038  0.8455344750225470
  0.1604658415615663  0.8310247945730689  0.4891747713509769
  0.1271927657083406  0.8217158223252953  0.1790612275637817
  0.1542213719333400  0.5097924592578186  0.8292318101503077
  0.1681015720594710  0.4987184041077408  0.4968069593755124
  0.1627843802603739  0.4974603604794505  0.1678557871371154
  0.1568828018115839  0.1500193193398325  0.8109558054270632
  0.1647832866477522  0.1538299478217591  0.4997187915141984
  0.1723172165823778  0.1641946783470877  0.1583474343667691
  0.6818789340622371  0.8247748998999114  0.8528419295740013
  0.8653279620009375  0.6617314092469859  0.8547016673647315
  0.8490004390869987  0.8158467334179775  0.6797153856353634
  0.6795495655162723  0.8591471748755514  0.4939997820215060
  0.8350128109256075  0.7003861499146288  0.4755958838882801
  0.8690222556574185  0.8500922080897038  0.3358264230284809
  0.6553998565489776  0.8379200266805750  0.1683333125472873
  0.8447176495117164  0.6605056324904129  0.1562138735059501
  0.8339797852057306  0.8581477520459196  0.0026352005234167
  0.6868613115211797  0.4910190507881248  0.8763381230541407
  0.8431213907688369  0.3451035605743539  0.8252256978665143
  0.8692684069498177  0.5074333744209621  0.6724445703798992
  0.6562221557101477  0.4952826907645084  0.4950979487659668
  0.8186659359857205  0.3138336015911397  0.4741356966081889
  0.7902317370559260  0.5151566546178491  0.3323210950228668
  0.6575043286427589  0.4804830872214803  0.1845642271517710
  0.8556789123097178  0.3596243006137563  0.1901209103933329
  0.8279968513256781  0.5073013110137573  0.0003226179044851
  0.6812934340637710  0.1485354379735776  0.8197744993605356
  0.8414959015599853  0.0150291535317325  0.8343304617065807
  0.8086769707926947  0.1918252722537487  0.6719306890716065
  0.6609579365371822  0.1595215082065163  0.4629124932079142
  0.8486096739103154  0.0040674378032072  0.5099250823877500
  0.8532318931624846  0.0936606024272560  0.2793052280444866
  0.6875801704599687  0.1648199046540515  0.1685131588595668
  0.9773126301489893  0.8298992498130526  0.1477358642970727
  0.8568144470875479  0.1992021592832401  0.0104849153903587
  0.3299356218187320  0.8239783089740493  0.8290954552896497
  0.5316776988382587  0.6732785364121431  0.7945545990670445
  0.5155802949943850  0.8617040714253454  0.6769082487667669
  0.3099703431232849  0.8191607071335382  0.4979408747369450
  0.5566105980607274  0.6921501220009270  0.4699295054285019
  0.4944681253636214  0.8280083076497036  0.3403848575172992
  0.2877595816512562  0.8390145902235518  0.1604208541511310
  0.4938730303230010  0.6621849268090670  0.1776924158539117
  0.4987417652362587  0.8041245068548555  0.9932564921570318
  0.3378256006910224  0.5227952798225641  0.8132433930299764
  0.4856838440285931  0.3220283951148235  0.8178563816086808
  0.5153561677649903  0.5094780900496809  0.6495878034642580
  0.3337167566795217  0.4794190901630037  0.5121869212699449
  0.4918071813102967  0.3304977606886800  0.5183281935882496
  0.4755274311800802  0.4831118453739073  0.3387822830504701
  0.3392613550262182  0.4917092460566803  0.1655146474582121
  0.5091443698625806  0.3447009331725598  0.1582625567048423
  0.5001176214074572  0.5204814981594239  0.9996365364319711
  0.3295193103483802  0.1789049002263339  0.8161976943636832
  0.5059718926547392  0.0035940153362982  0.8595853413942548
  0.5127630772587148  0.1265473361348336  0.6731945221135175
  0.3365090758880823  0.1532006527310969  0.5276194332264720
  0.5156302944756536  0.9883615177520433  0.5060371065301444
  0.5005250665730333  0.1868189881602401  0.3416134277671575
  0.3289229197746418  0.1863052687935871  0.1499735738749470
  0.5167603637231424  0.9847445360465074  0.1652066547021389
  0.5038107409870504  0.1771461330479793  0.0036867767846423
  0.9872601246082953  0.8052065199207527  0.8567933865543836
  0.1458795556434807  0.6706189688627562  0.8305462094692261
  0.1532732744821521  0.8222256955780046  0.6629818345451961
  0.0215491552552653  0.8110498601073527  0.5105570596368204
  0.1466849420246510  0.6541932283443173  0.4830943081183934
  0.1408071082687873  0.8417788530430281  0.3262634048333712
  0.1586139275763060  0.0195645389276953  0.1785513543110723
  0.1942563411964540  0.6743929378059875  0.1734549496950506
  0.1431324586378163  0.8294052972048874  0.0207854885600478
  0.9989151809738065  0.4737473271437043  0.8713129930023078
  0.1698834968923078  0.3435972199269380  0.8366847692650650
  0.1170226283058601  0.5093258244229188  0.6677350240985022
  0.0089413476723236  0.4891278153484661  0.4652375298150161
  0.1776921000906309  0.3451845313942219  0.5180056868127149
  0.1843026185527758  0.4622864339017067  0.3399659549807116
  0.9979324806743773  0.5476585846253562  0.1734166707399579
  0.1578556257268890  0.3479311020895572  0.1510692204026394
  0.1645110829940607  0.5277666047645947  0.0076426820994410
  0.9991426071315264  0.1449359105403995  0.7986055691850446
  0.1400319037607228  0.9703317705953990  0.8496354041364055
  0.1712538268050502  0.1459649990541604  0.6590723609349155
  0.9925347997685318  0.1771419023226412  0.5159618213776048
  0.1499985210074649  0.9942284021022735  0.4992202946616805
  0.1804459784024592  0.1602201649257480  0.3502788439386196
  0.1385157454013980  0.1800259817128174  0.0007663338262579
  0.0261973155338499  0.1830934802526998  0.1838536474793137
