Cl O  Li
 1.0000000000000000
    11.7780000000000005    0.0000000000000000    0.0000000000000000
     0.0000000000000000   11.7780000000000005    0.0000000000000000
     0.0000000000000000    0.0000000000000000   11.7780000000000005
 Cl  O   Li 
  27  27  80
Direct
  0.6740112457160055  0.6752688397348409  0.6627127773453593
  0.6733101193867677  0.6509486871917237  0.3360027458233283
  0.6901039532523267  0.6911345860630720  0.0116762017189917
  0.6629716841351914  0.3491361504011743  0.6698580473446180
  0.6463372413285425  0.3351497368020813  0.3262935348129468
  0.6640901745554390  0.3340407806958730  0.9980870572144297
  0.6811448559172031  0.9908504476070876  0.6525757974936146
  0.6508836314079054  0.0144229896119326  0.3501085711390218
  0.6599050762743275  0.9870277677572757  0.9869299971689268
  0.3301845294268964  0.6579563877680267  0.6480281523665438
  0.3515252796821476  0.6754287571040803  0.3097750017349393
  0.3376218004453044  0.6931002336861893  0.9846929935553883
  0.3222655832437981  0.3247380432012293  0.6840384265427050
  0.3237932597022493  0.3490786611190679  0.3312074919291009
  0.3395770028326590  0.3208703100485907  0.0006662791746835
  0.3073753328679277  0.9758067695466732  0.6485017102065422
  0.3406484694492684  0.9726822295945319  0.3510584803123042
  0.3451108118176081  0.9974857349165133  0.9946463897854488
  0.9903695370789484  0.6696654160875100  0.6982029759455080
  0.0122578835001992  0.6641965254573902  0.3086475437963911
  0.9748633220662208  0.6751949133763013  0.9963157183674138
  0.9876522240507202  0.3378823400309893  0.6741382053682548
  0.0158437888581035  0.3402369309873431  0.3324830657398927
  0.0167097983451429  0.3458740384957391  0.0254888063925617
  0.0062252335367477  0.0092223660619726  0.6550007520924338
  0.9926405465390777  0.9965371956050311  0.3308426374147753
  0.0092866345943433  0.9918837276259457  0.0150216047643520
  0.8391981149416587  0.8535899046804756  0.8357234925261761
  0.8376144876466790  0.8089047002615180  0.4952766197145905
  0.8223076019171772  0.8280220727740113  0.1860757385235382
  0.8422443991267357  0.5089288245780361  0.8375063080380313
  0.8360786331354211  0.5293588960222309  0.4920951142603338
  0.8369490694490029  0.4958952755871506  0.1550515360999761
  0.8478483895698057  0.1580473029381660  0.8398968905238167
  0.8295486603963399  0.2141876516709107  0.4710177215967036
  0.8334773645763391  0.1489033593426360  0.1765945008564953
  0.5063634708475113  0.8157522405561216  0.8160391623329661
  0.4939561501774856  0.8283500045944771  0.5032362942200823
  0.5183688928531217  0.8245461574187145  0.1702990600971619
  0.4901903997724709  0.4969592726456272  0.8414502347321657
  0.4850328419447437  0.4998227247194419  0.4970453867891987
  0.4879315568106111  0.4961874992760545  0.1532955927789644
  0.5079645878395826  0.1492896002747593  0.8267494965601966
  0.4886608204997528  0.1799239990501240  0.4949256112104622
  0.5091574499578794  0.1771111334960218  0.1625312661920524
  0.1412742423578487  0.8427759278038139  0.8279130472417009
  0.1653286587915112  0.8231440667018787  0.4930119873391101
  0.1757474069750442  0.8378580840883062  0.1749042552344540
  0.1641231348612578  0.4976460671397483  0.8365916616568017
  0.1656401940209536  0.4860449324377391  0.5376682042045551
  0.1664173823141049  0.4872998586894645  0.1586836036813886
  0.1585287495816948  0.1694204946608940  0.8432197710295628
  0.1767463844651666  0.1616514457080765  0.5042515063595883
  0.1665919351590355  0.1545579363054185  0.1859449706494513
  0.6501406836502058  0.8318179848094269  0.8345092541114342
  0.8373953806081158  0.6675764499057335  0.8484911333446146
  0.8422774352212420  0.8462792112962263  0.6479058459431332
  0.6688176963588469  0.8188681596462852  0.5102065862776061
  0.8750602530028713  0.6713905803756193  0.5194621177842668
  0.8503273921908868  0.7991694166471389  0.3402731671058759
  0.6653074088905159  0.7861284183408255  0.1929218011006794
  0.8105200319024219  0.6648712957847607  0.1846849837214840
  0.8454420987449659  0.8493753735063420  0.9979570256687358
  0.6583334326606880  0.4899610861406588  0.8429826884689890
  0.8532627463527445  0.3045380503416896  0.8367579757208107
  0.8287794376075931  0.5195706170062482  0.6596323639597080
  0.6437958506907530  0.5159140962372356  0.5024370312571644
  0.8148168294295414  0.3430243109758918  0.5454743985209869
  0.8542982011972173  0.4823502339271586  0.3363181878948295
  0.6795746697783213  0.5001809396265383  0.1429360039006975
  0.8473078283763662  0.3211957722590505  0.1603584142408925
  0.8553106603288479  0.5247618182096305  0.0093024940581347
  0.6797928051670459  0.1567782978851360  0.8602796750092085
  0.8171214209046268  0.0016026345757140  0.8053999204855798
  0.9951098577222436  0.1533347911004912  0.8463172287727964
  0.6645517082286870  0.1799731483377839  0.4852948204391230
  0.8343215663442839  0.0596030408706688  0.5554503678974239
  0.8506451216880492  0.1491214744886557  0.3455500354366787
  0.6562470170597372  0.1886704670122740  0.1785889133633709
  0.7941417402844257  0.9994774119697342  0.1702466112485924
  0.8442919892195598  0.1626537632445186  0.0101121092668895
  0.3407814235354917  0.8141111239790355  0.8323782640741461
  0.5148014804713740  0.6426087737161313  0.8047296440387118
  0.4802367783423176  0.8275579480345276  0.6577050965052079
  0.3300478506829591  0.8506341458720111  0.5154913087779361
  0.4913446792951002  0.6709750786134664  0.5098677233964583
  0.4933002460511443  0.8111032199625761  0.3227830246748613
  0.3611859891714280  0.8383021280644628  0.1747138523515343
  0.5023490185692718  0.6812282920771314  0.1801458202877943
  0.5198059629641404  0.8520708920997505  0.9967678679654484
  0.3081714582115757  0.4914704227084098  0.8629619143881584
  0.4956606264211187  0.3177182374873562  0.8606825858088719
  0.4770969323748831  0.5045247812000012  0.6653667174227653
  0.3259673667011171  0.5080621534075781  0.5296902302937728
  0.4642841098389581  0.3257772631888262  0.5074796510060889
  0.5095291060210737  0.5042758364143169  0.3256734602743971
  0.3322034963348971  0.5074946694165327  0.1387873930952890
  0.5152551194896847  0.3294641075298795  0.1420435232814065
  0.4825187789586597  0.4898852164824424  0.0090844301514620
  0.3346070948799761  0.1868829349501613  0.8139452569311776
  0.5017409681974725  0.9943560577454021  0.8253815755293452
  0.5347547147573656  0.1764304927842106  0.6750528922348945
  0.3325267520905154  0.1611261272714774  0.5485619778241966
  0.5188332605050653  0.9821946928991555  0.5014358675549055
  0.5112686831151195  0.1654078237406916  0.3182815734005252
  0.3496812502304719  0.1830268008674688  0.1876468355841435
  0.5195132939357272  0.9720246225506352  0.1752419035533040
  0.5047717869559546  0.1272697781173320  0.9996047802715901
  0.9828562338280996  0.8413762662115745  0.8045142616578628
  0.1466181646488548  0.6826920825587067  0.8480725142058966
  0.1716417208255183  0.8266714794986119  0.6583444016134764
  0.0077885896604567  0.8189535028904260  0.5133756627110131
  0.1946868258681726  0.6745162159641670  0.4906683679288483
  0.1713412988411028  0.8270998151357138  0.3346875367962111
  0.9889103524453376  0.8546114325439312  0.1620147432107615
  0.1550368424894739  0.6726872875703968  0.1573603987858094
  0.1731592556887809  0.8221429434850297  0.9896418010184812
  0.9976908642091504  0.4999006996189750  0.8134280153338604
  0.1527646089782784  0.3351229354607049  0.8333363108148252
  0.1560326013895066  0.5279962380946710  0.6761455124781943
  0.0063528049612034  0.4804341404458003  0.4921609435368866
  0.1632351278797645  0.3288345189199952  0.4781530726705285
  0.1889872696149535  0.4911368229305532  0.3088635132156843
  0.9918029432603679  0.4982654129409191  0.1533110582055592
  0.1955830716305874  0.3455793451968291  0.1206604556514219
  0.1207317429302671  0.5195109819974153  0.9991626998378152
  0.1648324493646546  0.1228919996489919  0.0207355002007899
  0.1473080056700734  0.0164028172498795  0.8166127596209116
  0.1470001546129349  0.1716071420154890  0.6561186757169426
  0.0056583865583242  0.1456713280967817  0.5036369783221994
  0.1848134262778036  0.9990325220699146  0.4891927961929823
  0.1855062328552999  0.1954539796310671  0.3404655132884726
  0.9874231360934393  0.1475135660690678  0.2094437551958264
  0.1846016875838486  0.0074017586851129  0.2189292438309124
