Cl O  Li
 1.0000000000000000
    11.7780000000000005    0.0000000000000000    0.0000000000000000
     0.0000000000000000   11.7780000000000005    0.0000000000000000
     0.0000000000000000    0.0000000000000000   11.7780000000000005
 Cl  O   Li 
  27  27  80
Direct
  0.6864152328178457  0.6493957617894770  0.6526743386050649
  0.6422228977794249  0.6734784674033309  0.3241905603030039
  0.6431671794807264  0.6759141101503727  0.9954829425975092
  0.6562898773442867  0.3504968789810606  0.7000787455822426
  0.6519601246934807  0.3283221900092831  0.3380625014055083
  0.6804083315751120  0.3267342510181452  0.0209567718101983
  0.6795987853180712  0.0194590026831670  0.6729751401353404
  0.6905026398047862  0.0119963308655325  0.3366388117224729
  0.6592423568345464  0.9913779586168119  0.9709253209846705
  0.3459042311169246  0.6573972172380209  0.6407566889681914
  0.3538946745339663  0.6785980499165400  0.3231192758707392
  0.3307256031660940  0.6609329700292004  0.0064093082373168
  0.3268675055410197  0.3150909710043948  0.6290686725764639
  0.3548849071755431  0.3712392953628966  0.3139851196230609
  0.3405032345192640  0.2969041151538252  0.9947001217717010
  0.3229239432155747  0.9842777444507180  0.6856844009926540
  0.3593538486657021  0.0064223160730117  0.3222166738989648
  0.3393087327418651  0.9790821771489082  0.0082444435504975
  0.9897420342525490  0.6590831916493142  0.6744809139870170
  0.9967989201738300  0.6920992458775734  0.3415174858038694
  0.9978021615999784  0.6857248990542787  0.0174415312049958
  0.9934586125968607  0.3321877774351952  0.6666516429869228
  0.9953874172317693  0.3425800380392789  0.3264227436224221
  0.0085763087405714  0.3231350575895991  0.0048420848080822
  0.9657367734323918  0.0079399641689052  0.6982912337628349
  0.9818706318575730  0.0164740842581976  0.3399904166265673
  0.0037385758462629  0.0013846339626378  0.9965960206245166
  0.8379024061175590  0.8304079324188375  0.8340388132716715
  0.8402338799048403  0.8237351271535092  0.5046883030710374
  0.8436017801864334  0.8439875486189132  0.1889478136133397
  0.8174830228215866  0.4979564017588959  0.8399255538177205
  0.8250162240188335  0.4903723104013621  0.4978444874341476
  0.8403963073694957  0.5172977395591445  0.1741520359415504
  0.8189361251549393  0.1679643799951520  0.8555234486738280
  0.8305394055836748  0.1775776203412849  0.5190346724498539
  0.8415195345827057  0.1686795952470468  0.1694857888060777
  0.5089804339810767  0.8164184419285897  0.8040606627486326
  0.4976129405797970  0.8202734626625090  0.5125179789252311
  0.5231230402916953  0.8362362120329421  0.1691566829087239
  0.4825808293275177  0.4803319287377201  0.8242662830801532
  0.4977056521685460  0.5005159703457457  0.4947933854852885
  0.5088530263960144  0.4833894678667586  0.1338458043105258
  0.4938824124814248  0.1804391898435378  0.8327398793793476
  0.4882423495381039  0.1632232247299490  0.4936249765545921
  0.5025258045898829  0.1602245412656020  0.1643047696832937
  0.1570213830344598  0.8208245500625310  0.8327052238684440
  0.1740347186713287  0.8398658100043485  0.5058950516849413
  0.1816363402113640  0.8570460366223180  0.1840308200914406
  0.1687913216531889  0.4986059091904677  0.8517098849996814
  0.1695790260315705  0.5067819782120569  0.4771454309263510
  0.1680653980103666  0.5062975297967862  0.1592671296397912
  0.1609031241389355  0.1683352870782628  0.8277536962918712
  0.1650404192722674  0.1464064761223672  0.4886556758830582
  0.1585075518263759  0.1590766280736847  0.1574818343965773
  0.6572713246519075  0.8385738396025334  0.7884177481166783
  0.8340081955068234  0.6753226587966463  0.8336206799578726
  0.8405138769999443  0.8241424103774454  0.6648463580725539
  0.6681563534230035  0.8116499084049187  0.4702619395877258
  0.8213728610080493  0.6543011359987252  0.5033603816252010
  0.8542612647387867  0.8648432026923348  0.3461069523594021
  0.6922465893231049  0.8537858275311496  0.1917462663615054
  0.8297714783280461  0.6955307892235827  0.2023630388063783
  0.8262908666651968  0.8294962009871231  0.0101974287290737
  0.6388625277840796  0.4868628731266397  0.8326882199962717
  0.8340922432178466  0.3209465985129096  0.8327107298841953
  0.8262942674396311  0.4944017422812771  0.6746133417629114
  0.6631972145893630  0.5160448375779157  0.4959718752830584
  0.8048091462125552  0.3314757605306852  0.5192697307399311
  0.8438229924663130  0.4604375602377724  0.3233281401005890
  0.6727504758006786  0.4926014775577402  0.1744368912858462
  0.8525203921116228  0.3502362339119053  0.1241567550342914
  0.8161277332386346  0.5468824123830345  0.0297682530148571
  0.6563838034953337  0.1974804705346137  0.8333970385533971
  0.8250176814935909  0.9991741207751791  0.8275230913968871
  0.7982762585239589  0.1947087583997094  0.6708284417589978
  0.6856068201522826  0.1658150601885163  0.4751882447539096
  0.8286317330675830  0.9975355652165635  0.5249793071321088
  0.9123139418097657  0.1824140074120054  0.3918810928493557
  0.6562844522993555  0.1716074798507717  0.1919618511694041
  0.8388016680430137  0.0155801284517821  0.1735260100477403
  0.8274385470660069  0.1806941062271875  0.0085520048839211
  0.3637439650627197  0.8423532335906959  0.8238382713263305
  0.4869530511733443  0.6681062964175435  0.7900212942333458
  0.5092555323415786  0.8211445467426498  0.6440566547319150
  0.3296665250849244  0.8602918329075501  0.4968440524692675
  0.5008323403777518  0.6630605592920540  0.4704650953747747
  0.5121481743959558  0.8184623073636996  0.3453858667230669
  0.3349900123652663  0.8439080352738028  0.1769503065053713
  0.5148464864826496  0.6796541928054892  0.1726747840611721
  0.5245320540136297  0.8477483193185062  0.9970893954400932
  0.3277519902918486  0.4745799641213413  0.8414437566902472
  0.4889380103370005  0.3249914553340096  0.8212658283791214
  0.4761699241790525  0.5026497538763193  0.6717669340466789
  0.3273594437571283  0.4952333126013224  0.4966516658012610
  0.5087324608452308  0.3349346517711050  0.4848510189990969
  0.5162901152300776  0.4838716490990730  0.3194770869368431
  0.3629030830983897  0.5220362329086443  0.1556194954182590
  0.5009919338637119  0.3068355303366297  0.1668875768954458
  0.4772440021046025  0.4785846594157868  0.9902483049773594
  0.1547748476372199  0.1731331522814309  0.9846025953416092
  0.4954433679468417  0.9771917843118437  0.8244325971441622
  0.5050845229831241  0.1484688231471122  0.6764681403336295
  0.1457357612534191  0.1637964778919100  0.6555117990457020
  0.5260739408509676  0.0054107242147721  0.4866704738069425
  0.4843756690061234  0.1770535771950987  0.3449199606255460
  0.3115631299069340  0.1161550996890360  0.1511580336075853
  0.5287123345309591  0.0030168760113497  0.1699145697826891
  0.5079457888448026  0.1618535020983556  0.0043054769516645
  0.9946371403497025  0.8810673258693019  0.8156143890356089
  0.1664490989895699  0.6591155799772612  0.8507003408175660
  0.1817216834555049  0.8335761586586359  0.6686388288481251
  0.9986637670335184  0.8127221240016118  0.4808090771275120
  0.1833720307060561  0.6625094314066219  0.5346015959673619
  0.1562969067450426  0.8404118772135388  0.3333440888193357
  0.0111440718274257  0.8438494124002183  0.1733668011731747
  0.1502394493466540  0.6706553387978104  0.1545681399290344
  0.1858249809658447  0.8550460573715765  0.9846225270578999
  0.9907807197062178  0.4811055644361496  0.8693519691741785
  0.1468492719682449  0.3388532953267356  0.8158790016749378
  0.1564475833194646  0.4918937925920933  0.6761944994478852
  0.0158151088929612  0.5242983147032989  0.5005396011734566
  0.1664837140150635  0.1268319929676610  0.3187240987974799
  0.1809204367075003  0.5432522476158888  0.3352029359310472
  0.0097225247081941  0.4873808029759258  0.1384614446835809
  0.2175565343504219  0.3168012973897633  0.1523227077592152
  0.1741313168594313  0.5022082199955786  0.0168810891449407
  0.9855265934218610  0.1437418074113286  0.8429752387772319
  0.1449565183257136  0.0019650587354180  0.8196554807135852
  0.3466210657852167  0.1869757009763233  0.8008425584837955
  0.0962735922241716  0.2987556344063387  0.4748817297152990
  0.1449183608268508  0.0130960778061498  0.5107325723471400
  0.3370416712417887  0.1605988997299096  0.4872360549837211
  0.9771478974538899  0.1703641729116973  0.1721957809335375
  0.1265385717552406  0.9983630177276092  0.1678043082752873
