Cl O  Li
 1.0000000000000000
    11.7780000000000005    0.0000000000000000    0.0000000000000000
     0.0000000000000000   11.7780000000000005    0.0000000000000000
     0.0000000000000000    0.0000000000000000   11.7780000000000005
 Cl  O   Li 
  27  27  80
Direct
  0.6881909509216331  0.6968412136097467  0.6714391593400028
  0.6791941616698608  0.6476527765584157  0.3310249177688242
  0.6636181289351176  0.6739006823809520  0.0166830676467652
  0.6700674952230203  0.3572099598666924  0.6687116977581565
  0.6880965389456669  0.3327058011354252  0.3142827432863410
  0.6557497895144371  0.3230310432088975  0.9686905822565764
  0.6276107292230619  0.0074646827644952  0.6854487710789879
  0.6572429724036243  0.9967293997196853  0.3295549127768241
  0.6646171873960600  0.9978634884092791  0.9889689763776226
  0.3323242583295349  0.6537268430962297  0.6844150975925520
  0.3359854551633950  0.6668011204095088  0.3377944224357801
  0.3332011723087063  0.6641266137438562  0.0166595671314676
  0.3062712897558311  0.3462748101580982  0.6489925501124033
  0.3570395282309032  0.3279909715080317  0.3398279843340620
  0.3439976392455714  0.3434000221695019  0.9872927627456307
  0.3128502903263424  0.9823368943696186  0.6632844666148587
  0.3241827436053243  0.0100606920157929  0.3251323068383346
  0.3438391793510895  0.9857019796500519  0.0021220408289712
  0.9977105578571029  0.6581318986095128  0.6671701348040980
  0.0060516558472281  0.6609756342886898  0.3432327668241048
  0.9908522974687578  0.6512299459239577  0.0168434948791360
  0.9991324483115884  0.3564633279366888  0.6815759367646979
  0.0042911664574900  0.3688154669929744  0.3106189756289501
  0.0148760158403376  0.3249059832710579  0.9992652066172925
  0.0129683559759362  0.0047017237017356  0.6535286164122331
  0.0031576502568960  0.0066205126257771  0.3221038969617435
  0.0081062752193519  0.0125261497369130  0.0064530839522187
  0.8649442588529822  0.8421146052219638  0.8234628048067520
  0.8277993810634195  0.8524375750469452  0.5137062613643553
  0.8289339441914111  0.8375616969916013  0.1771937404474547
  0.8216175828497713  0.5120525639417389  0.8611777171681861
  0.8343832803685330  0.4893579410928836  0.5051760664620728
  0.8207814781638133  0.4864302386735035  0.1768445537867736
  0.8326632982128953  0.1685108446958607  0.8192712693454610
  0.8216174209081315  0.1610264081748795  0.4833911102890254
  0.8141282678368928  0.1641874482544145  0.1584751492228115
  0.4942228418322308  0.8128531274255774  0.8490858588123663
  0.4951536418920242  0.8282278667021284  0.5044448189878441
  0.4905220300247501  0.8445174143015489  0.1599688078155655
  0.5053677464496932  0.5072477150053573  0.8331232713835730
  0.4970794113863567  0.4979211316042623  0.5146522839382840
  0.5225317789036892  0.4977938049900197  0.1725551853323770
  0.4903415865526741  0.1919109460555217  0.8292141621419820
  0.4974669377302454  0.1539819266036516  0.4977893819633774
  0.4976982308771985  0.1465211031980144  0.1427568710002652
  0.1758775413420818  0.8277162120913820  0.8562567155907034
  0.1764870491886388  0.8241764107592090  0.4948628131354754
  0.1736842847443151  0.8315876699017344  0.1633772339925024
  0.1702479033918188  0.5095778527741109  0.8470757582091414
  0.1662263459241358  0.4777257135960452  0.4911363740635066
  0.1725791140239357  0.4955964593658497  0.1645673835883334
  0.1771801391640046  0.1639633817531345  0.8378262995139707
  0.1554806072059180  0.1523984916143689  0.4753658899048502
  0.1537579631345771  0.1644138123027082  0.1661240779643547
  0.6821199207895642  0.8074421714170729  0.8287818589347061
  0.8547829067844575  0.6847446589463747  0.7992183599802117
  0.8462089066686265  0.8542023340659700  0.6770467529845569
  0.6690584368658242  0.8626416797083606  0.5126470820696609
  0.8108883014506915  0.6485806211832841  0.4985513173783360
  0.8053966985055987  0.8259123441663609  0.3373376862836092
  0.6529435838102690  0.8509822865014564  0.1457303522969282
  0.8305086646962057  0.6676827306962325  0.1933479048360560
  0.8522716777770687  0.8009600524325337  0.9997929311682253
  0.6524774752856983  0.5323266046160480  0.8302167428335884
  0.8497518658627742  0.3303112308367615  0.8121073760576326
  0.8111221451784705  0.5025710833622365  0.6509213964978909
  0.6419724020868335  0.4619483874031100  0.4994853562709243
  0.8772814587930021  0.3168445284449918  0.4830858502981227
  0.8039970369133589  0.5080062091604713  0.3375655786561280
  0.6715317715295146  0.4432301605471561  0.1556523849859804
  0.8369220394546767  0.3166249558242145  0.1857539147957933
  0.8019868553393141  0.4895036480832362  0.0158078451986277
  0.6527237885197371  0.1842268152500408  0.8361287462754365
  0.8495405320229185  0.9950594742942159  0.8328005216955788
  0.7835930380731616  0.1770631648746721  0.6533493065316353
  0.6591105643638815  0.1423387781674834  0.4973964305745575
  0.8867166645489500  0.0049813096168947  0.5036964866706233
  0.8181052306255336  0.1285873216449426  0.3161797074115054
  0.6558710433171894  0.1359649070477554  0.1455254961226619
  0.8457650246341096  0.9840836588890968  0.1628813383275729
  0.8313365103585367  0.1713498233393704  0.9888002407800318
  0.3329574298981984  0.8509763756316060  0.8683025015500181
  0.4771583225158527  0.6569100489377037  0.8226199795427453
  0.4926397408475800  0.8075398222258338  0.6754675790846697
  0.3301182893130490  0.7920512379765483  0.5039194398231300
  0.5113633117776450  0.6727339333520630  0.5019067481536692
  0.4816210292528819  0.8570375273236510  0.3089399039800507
  0.3414940619806602  0.8272215613528078  0.1465026013700675
  0.5175839354994203  0.6620171619446529  0.1813860046461246
  0.5061382647715578  0.8298877685094239  0.0168769383580797
  0.3437593421226997  0.5170264799500054  0.8715893500409231
  0.5106339266322735  0.3375556293622437  0.8162353494253274
  0.4523884175537785  0.4849165296814797  0.6734715674041016
  0.3142325836777203  0.5114918814995625  0.5340915154597530
  0.4679813731898739  0.3324266744766349  0.5158172516091358
  0.5074195875105603  0.5375763072367852  0.3338257186707660
  0.3589931112018603  0.4430088268110468  0.1652503623325682
  0.5133594853998528  0.3231657381677481  0.1377170548659786
  0.5014311071293468  0.5089037302132992  0.9871943971163506
  0.3234850180505210  0.1531732406615716  0.8419133826176319
  0.4954956626351470  0.9740359974426809  0.8506737775607994
  0.5000395831045039  0.1728443827324954  0.6633948703277488
  0.3228235066949038  0.1593061021359623  0.4605472582191531
  0.5145163964741281  0.9820150265044594  0.4902017683751793
  0.5283112735988230  0.1586205424468442  0.3337590796860146
  0.1188800456315661  0.1800860282501021  0.9933082810548347
  0.5076622165722950  0.9905982079521620  0.1435375511600232
  0.5156374779606114  0.1597502473256437  0.9947085831389111
  0.0414218816282978  0.8364515870512101  0.8392337343049177
  0.1913314295950540  0.6471429842765264  0.8790293538245016
  0.1831682754192336  0.8386280017184441  0.6683445355754646
  0.9908781480355853  0.8486061168216077  0.4726050278598083
  0.1394810262337974  0.6661216942599957  0.5138782838711649
  0.1537838737969348  0.8131570109125422  0.3472432515321708
  0.0097383350837190  0.8230655720814388  0.1923345550254069
  0.1887878932305380  0.6419972077030899  0.2065348732878865
  0.1727828568494287  0.8187605965015126  0.0069481072830811
  0.9716432204420875  0.5049535687660348  0.8984262376071798
  0.1721939358338233  0.3251789359048332  0.8678145713894930
  0.1683940258641766  0.5030463820748622  0.7107465653011922
  0.9883267568689574  0.5041207029128717  0.4741211254910183
  0.1767953455852865  0.3329518916997092  0.5138757332903391
  0.1477303131192525  0.4769759238040668  0.3448377299301200
  0.9755700926572872  0.5064040395477417  0.1729048983033873
  0.1578711593276458  0.3295322510642206  0.1516534993478605
  0.1850811503105020  0.4719900645998699  0.0130652091790705
  0.0092629465440901  0.1533760725653411  0.8163220691734059
  0.2032526419480016  0.0015275707774737  0.8313448282959904
  0.0651113119700524  0.1766935330819742  0.5893003758807354
  0.1448673468703569  0.1825330473973354  0.3355902955054461
  0.1905079563569956  0.9988913501044167  0.4815297530818980
  0.3256471818534584  0.1608959844267771  0.1549123622991486
  0.9847868214288642  0.1727681487055896  0.2056600240646217
  0.1598381935760535  0.9994215990629904  0.1852121187973510
