Cl O  Li
 1.0000000000000000
    11.7780000000000005    0.0000000000000000    0.0000000000000000
     0.0000000000000000   11.7780000000000005    0.0000000000000000
     0.0000000000000000    0.0000000000000000   11.7780000000000005
 Cl  O   Li 
  27  27  80
Direct
  0.6462562544011979  0.6593019538063055  0.6630946741599030
  0.6790467239253049  0.6695171109846327  0.3436530490114453
  0.6720502378075538  0.6746277462222465  0.9818419924832714
  0.6683197906800015  0.3492966275198640  0.6547475542813425
  0.6751924724141745  0.3358133868381362  0.3113506311040932
  0.6650615248885099  0.3458773917384746  0.9819574695240939
  0.6587054774705053  0.9936184077952840  0.6524738126886268
  0.6603484563764486  0.0292829485897145  0.3151251061149487
  0.6911299993742186  0.9955836872542051  0.9743198792276704
  0.3189783542767273  0.6586515556957153  0.6715835334586429
  0.3433648219213162  0.6411205230006672  0.3506108715627094
  0.3500211901102115  0.6765910456915878  0.9750263749344006
  0.3458445532797763  0.3126150445188815  0.7012959377508746
  0.3394675951475407  0.3467735362873647  0.3483744170325431
  0.3418951610553007  0.3459313992753267  0.0135426896596333
  0.3531256518293636  0.9922409195559977  0.6359909877421811
  0.3305789019402924  0.0193724314694503  0.3420367904760585
  0.3338694346035013  0.0191365824487105  0.0303237870682610
  0.9846464407973274  0.6768099907885110  0.6446744604064737
  0.0080681170849759  0.6625894905491795  0.3536832283517838
  0.9836729703806325  0.6751477813128492  0.9913361702994645
  0.0162596211691026  0.3046713415076087  0.6732952970760638
  0.9958290670629114  0.3345473675840888  0.3468695338598849
  0.9660307710757510  0.3395659794849224  0.9954071825931354
  0.9820276015703341  0.9832175902202601  0.6533913335339619
  0.9892374571849590  0.9706688325054609  0.3456036360620673
  0.9836197105586952  0.9942242795459613  0.9715222336573652
  0.8413052024796094  0.8161678567282157  0.8207994752610565
  0.8143271018035028  0.8320321455816894  0.5012087828332216
  0.8427091555253020  0.8246641248569734  0.1696137918699019
  0.8344114278468611  0.5183201775887367  0.8317562846639652
  0.8447166650622914  0.4916728831972011  0.5056716919973006
  0.8392303252204900  0.5103807053028018  0.1859465475230746
  0.8397176885852758  0.1622900049113248  0.8099789397479854
  0.8457924433750587  0.1713793438102063  0.4656451841848626
  0.8346035716024078  0.1576358831561274  0.1509867685211770
  0.4871594434502825  0.8515592304427152  0.8275312272832488
  0.5060570206722440  0.8294265045983346  0.4854658287533204
  0.5056876317920058  0.8388532893890160  0.1754314339425461
  0.5004425040225914  0.4944665789096995  0.8229728940079555
  0.4784123277215734  0.5077106925176519  0.5159342171052504
  0.5102547908866649  0.5099152850302000  0.1735396317071483
  0.4984693261132261  0.1731026255267536  0.8530690190155421
  0.5021795305358113  0.1754772162756149  0.4880838177867051
  0.4983715133628255  0.1668954024756666  0.1740539988403602
  0.1702616380642102  0.8402100364467258  0.8340653295341433
  0.1786850931832016  0.8253112436493593  0.5161015837899178
  0.1806706191425967  0.8119385888648661  0.2027955427596689
  0.1711626813477022  0.5012076020907669  0.8480136058770785
  0.1675483969826032  0.5025873043759089  0.5130397936928363
  0.1592638473050956  0.5009487788650586  0.1709771076853732
  0.1630138185215886  0.1413799789323620  0.8393942621021212
  0.1626496725019369  0.1574102680879175  0.5288056220293501
  0.1402482045064139  0.1802612961967006  0.1659849833639890
  0.6509188376070716  0.8340211128009287  0.8387227710929552
  0.8594482531166303  0.6687951751546890  0.7839094936124386
  0.8072447461312817  0.8583460426224180  0.6442034531473011
  0.6394431267050381  0.8175137536960629  0.5163855484551951
  0.8185400945320589  0.6822173435955312  0.5210818964929538
  0.7947251189340988  0.8338327746739156  0.3266659377988611
  0.6609794214902706  0.8546221946166851  0.1542341234946913
  0.8524365849701538  0.6694443587029814  0.2233909768607392
  0.8275948184054467  0.8079975771202471  0.9763015109966975
  0.6803204758926498  0.5055841153900466  0.8240131261308006
  0.8529627333576568  0.3314027848236921  0.7979197126325726
  0.8086922614780634  0.5147617934534041  0.6498601555941050
  0.6250771219024035  0.5355043717768797  0.4838258457677123
  0.8691371404512249  0.3197965287173263  0.4973895107162740
  0.8458889605923414  0.4966842482096565  0.3484806912336199
  0.6817106638989648  0.5216043135571760  0.1656522843865036
  0.8382588373237128  0.3509392420571179  0.1535204669310790
  0.8687029749150924  0.5175473111130958  0.9944165280176771
  0.6618809101132720  0.1460924806486842  0.7870081659179700
  0.8188844634289578  0.9826218853681525  0.8406378119536552
  0.9837112554186579  0.1609157985205812  0.8159788775002101
  0.8466825555978686  0.0091199296633816  0.4809995188148070
  0.8513972435263272  0.2070242574044177  0.6536316549273303
  0.8265762054915062  0.1492883280594100  0.3098593915145827
  0.6792015401328928  0.1924750561218316  0.1525889786193166
  0.8520470343557686  0.0001710070550612  0.1709420473203704
  0.8296551209169900  0.1547150328923786  0.9804895343486767
  0.3107593707206078  0.8754699135497593  0.8616456911684288
  0.5028909401591724  0.6837444532582434  0.8088434859409753
  0.4952851081365039  0.8447147670392664  0.6619459816238444
  0.3271947062812010  0.8667581010985128  0.4680292890050584
  0.4567815804749648  0.6745554392801043  0.5206363950420396
  0.5167898243019878  0.8331463040630740  0.3339253968968388
  0.3419186425930624  0.8378013164972899  0.1887050209289304
  0.4894477193051644  0.6696108347086300  0.1897096461337387
  0.5273646133767592  0.8255721316309742  0.9929208685600540
  0.3558581740874517  0.4850207254909389  0.8357199682381476
  0.5230003671566896  0.3239720521989884  0.8380014020587505
  0.4964039629254410  0.5113898041454077  0.6738998657026090
  0.3327762273217575  0.5082275697462797  0.5357095584999920
  0.4821818432697121  0.3367447132082589  0.5300742728350433
  0.4907151960339694  0.5027145500193316  0.3197741267084944
  0.3450463834229267  0.4720767707122376  0.1866480989491166
  0.5246357752909750  0.3260056343399753  0.1944777748033103
  0.5007090194761872  0.5209133490658318  0.0035031129598061
  0.3402165549886155  0.1816399863465943  0.8358434487384463
  0.4737594205286741  0.0203172027911783  0.8466398549471965
  0.4538141213830295  0.1411179877233263  0.6337214566320986
  0.3247875247773428  0.1878577963323792  0.4659531971836409
  0.4878378574645472  0.0144480354433786  0.4971270842890816
  0.6703820769766317  0.1965559449577729  0.4573918285157092
  0.5104645862809432  0.1795225184362242  0.3346339320560945
  0.4844147350838042  0.0116485756206408  0.1777084548534663
  0.4842172472541460  0.1810040617700554  0.0109602379599873
  0.9991187099959786  0.8365057833794006  0.8205679796870536
  0.1821533770387259  0.6720677322958873  0.8511782694008024
  0.1663112134617814  0.8471228392221433  0.6788366970753758
  0.9867522843343702  0.8192546263232267  0.4743928262239007
  0.1828105159700703  0.6762444905825523  0.5034805406408503
  0.1690513672196420  0.8169448527156700  0.3559680224614115
  0.0041607651632097  0.8168486593816665  0.2133834086218488
  0.1622997571038770  0.6609842035598849  0.1420052119048925
  0.1631949704883384  0.8482528679842222  0.0209633717813209
  0.9979013276361217  0.5330727370854215  0.8682061899066003
  0.1650497589377041  0.2999966531641647  0.8243400863014279
  0.1707258235318090  0.4922306506898624  0.6737352925112270
  0.0151511812518710  0.4936620123580803  0.5116103348388852
  0.1528311407633810  0.3273002362934360  0.5294980439954521
  0.1778641502832641  0.4971682917708278  0.3694829834618225
  0.0027745396663919  0.5158209322626885  0.1597862723703406
  0.3407141206767048  0.1500991799709214  0.1674092499641160
  0.1890207754269024  0.4586292988901864  0.0130284047624103
  0.9809960485072435  0.1662704899306297  0.1633545448241372
  0.1401308879097775  0.9867991990640351  0.8530903953119872
  0.1625000687908781  0.1405219817609823  0.6852032302145531
  0.0168759659892622  0.1488016428252404  0.4871747988774560
  0.1652870236826225  0.0080112367123379  0.5138183281258677
  0.1451770906174811  0.3315215082883237  0.1996700893554659
  0.1416748698670795  0.1266021869039358  0.0131828224417440
  0.1454823506083838  0.0346189053763160  0.2410997607481027
