Cl O  Li
 1.0000000000000000
    11.7780000000000005    0.0000000000000000    0.0000000000000000
     0.0000000000000000   11.7780000000000005    0.0000000000000000
     0.0000000000000000    0.0000000000000000   11.7780000000000005
 Cl  O   Li 
  27  27  80
Direct
  0.6614803970286253  0.6786970258610319  0.6820275879285875
  0.6649559480152328  0.6645393994633280  0.3851041502124926
  0.6644540503882805  0.6292203326909707  0.0185479430152226
  0.6720965217069392  0.3334437049393722  0.6559234862821370
  0.6503410793977337  0.3334681783696773  0.3452413249124181
  0.6559293210163392  0.3319442670543502  0.0374760158722170
  0.6505078388012520  0.9891958581509604  0.6609651343812231
  0.6777126172875793  0.9912952480606261  0.3265208106308031
  0.6647744114370886  0.9992742255667653  0.9999703602593339
  0.3535215272435295  0.6938406339322697  0.6719430771681175
  0.3462268660816141  0.6640607404616777  0.3376285698846510
  0.3304911588900912  0.6788472267318871  0.9892273173000916
  0.3267557320571171  0.3433760108011952  0.6532327854525107
  0.3260380067098063  0.3240858263163983  0.3103078816696825
  0.3163721960588742  0.3436912302029417  0.9913047502007133
  0.3382028602597371  0.0156166708334796  0.6446419838915571
  0.3374133340379084  0.0167021327502355  0.3285065795026578
  0.3648194667105426  0.0095250576659664  0.0053387404823240
  0.0294725915951106  0.6559081124924402  0.6689486547931661
  0.0057549770821966  0.6730084209111999  0.3331655595070473
  0.0018474134027589  0.6590866220263617  0.9969937280591259
  0.9810163104093939  0.3035216064663871  0.6483326743465542
  0.9881323018662558  0.3222002993195403  0.3449884935273800
  0.9955976077658741  0.3379442655346898  0.9877327718238263
  0.9794471971338753  0.9815950792135195  0.6500773526022516
  0.0125946050094965  0.9884333837739820  0.3325977718754274
  0.0094424508448575  0.0116663221411943  0.0026698695122511
  0.8520611323542565  0.8352095316396280  0.8476727519946943
  0.8342873896266539  0.8330863148010470  0.5134256934041780
  0.8164175345358677  0.8268274323668843  0.1622465129091203
  0.8296559397010196  0.5166722290928667  0.8347778250474230
  0.8319044993687560  0.5038787180974802  0.5015197035653655
  0.8429987162529811  0.5069997788347054  0.1602076170580796
  0.8113512713075420  0.1711397612697118  0.8328628651575429
  0.8331171183671006  0.1629102919924195  0.4924378544673219
  0.8352255985164654  0.1552418695259931  0.1730504797681758
  0.4973151366372474  0.8568494690742915  0.8297681604221849
  0.4945234247098357  0.8513181904274632  0.5066290837552712
  0.4857997905188884  0.8149135478731345  0.1832593009798483
  0.5051840023682573  0.4924033715641362  0.8289488166959398
  0.4905971091690226  0.5084271729327497  0.4957991556270955
  0.4998692396937562  0.5015408881008391  0.1797360176949285
  0.4945328982957602  0.1814324480080628  0.8393942144005621
  0.4954861272726572  0.1620470317177484  0.4971718134509093
  0.5065516400012390  0.1627812852336647  0.1818893556785002
  0.1744450247912304  0.8412013723098659  0.8408090175361170
  0.1684249657902684  0.8194994112271833  0.4927276490316298
  0.1677631912794866  0.8299031899303930  0.1647257381999561
  0.1602375810966025  0.5045208976698540  0.8213322155542290
  0.1920535263181872  0.5128081801125323  0.4894585736356858
  0.1572198188828241  0.4933686247077835  0.1560344822156036
  0.1589201656146439  0.1756766372777402  0.8174393814474314
  0.1855999293049466  0.1515115438546706  0.4770719814955464
  0.1730584399863995  0.1536429286247056  0.1701883637128888
  0.6806712505601490  0.8570329489521127  0.8696726047236716
  0.8308728501528170  0.6735927468327780  0.8585877804545514
  0.8602612901947566  0.8316589611884126  0.6697213998125771
  0.6878277755033694  0.8536705546862706  0.5100529348733930
  0.8057651754156628  0.6794105002402995  0.5021054464762912
  0.0025742266909568  0.7894924350922714  0.5017776765974652
  0.8383465377974605  0.8417848480378352  0.3468759638239150
  0.8614079989457282  0.6602154767115525  0.1433470632369493
  0.8663055999562689  0.8631700512731938  0.0120692159489345
  0.6609510907791477  0.4761594105363013  0.8298142328186898
  0.8243508125540828  0.3268704532970715  0.8141982814697519
  0.8382486440762400  0.5129261950824898  0.6690542812276840
  0.6702583221542942  0.4955312743356401  0.4873279074816772
  0.8085053899016384  0.3439828870961066  0.4849014144372804
  0.8450284927654342  0.5230630129925948  0.3479275723469517
  0.7007809204701259  0.5097105199422490  0.1769556214395934
  0.8290893868744025  0.3273597194761244  0.1577357803545568
  0.8371578861617971  0.4769040181958081  0.9908357368479800
  0.6548449193112559  0.1851708910040770  0.8184167802140588
  0.8552446620790096  0.0074561817362850  0.8618568153650853
  0.8162305729127926  0.1787106341409022  0.6472754383515367
  0.6781079573155852  0.1581590761028478  0.4889815745358430
  0.9892420573163979  0.1735320846281242  0.5076343769693434
  0.8551108173137677  0.1478065620499669  0.3440001637000702
  0.6545376350498565  0.1752966817055093  0.1879880980736690
  0.8204617840758189  0.9816606617821053  0.1797018277662392
  0.0065075462076885  0.1892085819076187  0.8071101669908799
  0.3498855325773533  0.8305143576787575  0.8387730872413540
  0.4979817693972213  0.6749379150632463  0.8184113551691279
  0.5192000108020119  0.8538851273589212  0.6841345296323749
  0.3400539746581512  0.8305992150979792  0.5085943670096994
  0.5290519328824110  0.6727653465099559  0.5401055380653005
  0.4546946071541059  0.8626921614943326  0.3222465229916069
  0.3308370459898627  0.8235319199982533  0.1093337521484896
  0.5070575051983649  0.6539552987442718  0.1819672091218034
  0.6681551860790405  0.8096962740657546  0.1887249932625834
  0.3424277961842238  0.5028662994512598  0.8341328924671739
  0.4623257830433929  0.3322112278474552  0.8432830809371861
  0.5118631233575355  0.5064487319200931  0.6602908498787716
  0.1703850466695200  0.4893831599830568  0.6434989593128895
  0.4344450601528069  0.3240612516725684  0.4813204394432046
  0.5081900035704497  0.5139355368375554  0.3339972512833223
  0.3167858354921703  0.5175728270368495  0.1663904274069765
  0.3336003776449105  0.1655623798623211  0.1738435282206687
  0.4827852064097899  0.4755146803831016  0.0031033613458591
  0.3175927299548607  0.1534143075148081  0.8191865697985449
  0.5067057274714479  0.0132413349000417  0.8804442338615424
  0.5243399169910079  0.1671336793499761  0.6495367509234025
  0.5010827493711191  0.9933308481462642  0.4957913824283882
  0.5212675197165235  0.1611537312689063  0.3380872695792037
  0.4864626176503286  0.3170741379272169  0.2107340564223207
  0.1580721379754605  0.3247404551523267  0.1691988395659859
  0.5206498338171600  0.0050428983220483  0.1613262896626721
  0.5085059112241651  0.1953772628484485  0.0404701497886227
  0.0153937346231095  0.8066310427088286  0.8337707909607237
  0.1521367440880231  0.6833160467658165  0.8408401913017662
  0.1791187617275408  0.8092596794050260  0.6565346945159112
  0.8174908536028941  0.9952956440676917  0.4999588695561785
  0.1658103370459083  0.6771467990292477  0.5053458177165919
  0.1764008547024389  0.8011297232653515  0.3274374610398247
  0.0098373936097784  0.8422075157175465  0.1918241716357392
  0.1590755182539133  0.6596529319405191  0.1413400192821742
  0.1414235758820973  0.8399965265102287  0.0091541019617057
  0.9889298125700249  0.4921866126793494  0.8575938636406706
  0.1881328382493549  0.3331232426770393  0.8156754321366053
  0.3458146031522558  0.5718318187699595  0.5026731328943864
  0.0328861442370804  0.4980498312022268  0.4861076367408552
  0.3489314938922577  0.1673411569545356  0.5114417868611802
  0.1977995395793057  0.4881278288772321  0.3460999799717092
  0.0082524657210044  0.4830444808059139  0.1901846137469354
  0.1789233791391991  0.1739646914759744  0.9855371987015099
  0.1743086699305726  0.4741408484823999  0.9877049709988922
  0.1782732441837734  0.2867366793910134  0.5664976934034317
  0.1602821454115874  0.0029307580385917  0.8187441452387857
  0.1523032909431393  0.9972166264052118  0.4786951630360319
  0.2051388156629683  0.1685376020316113  0.3274618737420149
  0.1696809851480621  0.0121862092070170  0.4895254960183067
  0.1996227190448653  0.0126067147128041  0.1938716807577434
  0.7748580772832476  0.1764377224990903  0.0162791115436306
  0.9782215646065752  0.1296486127820903  0.1784749781463030
