Cl O  Li
 1.0000000000000000
    11.7780000000000005    0.0000000000000000    0.0000000000000000
     0.0000000000000000   11.7780000000000005    0.0000000000000000
     0.0000000000000000    0.0000000000000000   11.7780000000000005
 Cl  O   Li 
  27  27  80
Direct
  0.6764306754269684  0.6625817531559280  0.6554730818208181
  0.6604004368781752  0.6687624582635082  0.3439410507257638
  0.6671570874274771  0.6732725329301602  0.9836308516022978
  0.6595484619115233  0.3088250184306572  0.6818900142298289
  0.6836337181062030  0.3375627364787270  0.3129987401651458
  0.6745941357761306  0.3326289212690003  0.9839606356302679
  0.6514140928621660  0.9903071552065099  0.6658452009334594
  0.6628015050851334  0.0003174878397973  0.3394177980581781
  0.6857614693106966  0.0082213791436608  0.9753241007381175
  0.3468532040182442  0.6543617979499701  0.6756174477271084
  0.3326595860911087  0.6517965614057294  0.3204783994077547
  0.3274750649803655  0.6807592568768027  0.9901913161809045
  0.3474119836461538  0.3268393457067928  0.6710878590928681
  0.3294061583061043  0.3347017742576232  0.3243333391708542
  0.3547257944069679  0.3260400220157601  0.0226951578588618
  0.3256249222317898  0.9967345799836895  0.6491924182361107
  0.3242501591666597  0.0113183934451387  0.3221633616837996
  0.3366488766870743  0.0068281110832681  0.0070042958498551
  0.9860769406511247  0.6840671577808735  0.6509480275524904
  0.9860932980219071  0.6724535535726046  0.3339964170566158
  0.9912532913000757  0.6679013740796211  0.0323864869697431
  0.9851590592326073  0.3319710536002771  0.6645760643028472
  0.0141304641274925  0.3448095843715103  0.3299869444837982
  0.0089088400362983  0.3256445605315245  0.9805457785989967
  0.9781763204418669  0.9945930106027180  0.6632121918129893
  0.9966417019959229  0.0231135823079760  0.3715611690326043
  0.0089450611939141  0.0020993554237341  0.0064655375223269
  0.8310209339418962  0.8259648759127901  0.8203855004525286
  0.8242714493101525  0.8415692484344871  0.4843930753543458
  0.8307785073072110  0.8436657449025114  0.1914797984630374
  0.8439528645538472  0.5120139225449968  0.8505718269534482
  0.8116795151708276  0.4794325196777892  0.5111410164749773
  0.8518637946257785  0.4986831701597856  0.1715013620093618
  0.8291504270321237  0.1675864128938192  0.8283121388635143
  0.8354615356451015  0.1670003056142041  0.5022324449314516
  0.8430037246033536  0.1692103838997984  0.1674127404601231
  0.4861169818652622  0.8230845819084428  0.8461849089038155
  0.5045445639632995  0.8219334197623784  0.4996523097563551
  0.5030964818207787  0.8465617472459134  0.1616524560920028
  0.4960254215779291  0.4939497374865275  0.8502523160982488
  0.5128167453480722  0.4842657084011249  0.4995609341861340
  0.4968222149308409  0.4985045485311567  0.1646770502187076
  0.4862310697504563  0.1629213195925297  0.8359827475420771
  0.5145665247654214  0.1653243209778121  0.4902577918373909
  0.5055867393858217  0.1531842040133511  0.1694129018952094
  0.1628775722311794  0.8474587419884120  0.8353903650239223
  0.1774897384475653  0.8365985307736057  0.5009886521674579
  0.1616643358303335  0.8348832449255201  0.1828151717570691
  0.1423753659078346  0.5034306917557008  0.8363712455358043
  0.1594956336336918  0.5047790178481441  0.4930797058806134
  0.1678975100291883  0.5068085919335474  0.1694843282796855
  0.1782691433169105  0.1354699748383516  0.8246617313914018
  0.1591361636788875  0.1893729986046164  0.4957208120830705
  0.1816227320060918  0.1678295176591206  0.1575009809438416
  0.6725154933738872  0.7913028873436625  0.8178150817758165
  0.8376881522206538  0.6727301498932740  0.8618861225260749
  0.8718042355222311  0.8292794973949100  0.6661590033458582
  0.6726169093257718  0.8217747169554370  0.4993136493022569
  0.8109731257382985  0.6630239752886374  0.4708369406920319
  0.7847465962122075  0.8228440176026147  0.3347944249718257
  0.6485396287568492  0.8758122939816176  0.1617902076993034
  0.8662880984187181  0.6586718746915480  0.2008102077353711
  0.8154521885809410  0.8520727831877745  0.0018901042220126
  0.6660749124199403  0.5029766478832906  0.8547404476727166
  0.8043661497495227  0.3563422177599111  0.8546880595522621
  0.8295567386062216  0.5118765960345005  0.6724010843348984
  0.6615074294420017  0.4855228208649868  0.4575668354509018
  0.8214361750816518  0.3252523378800835  0.5224174986747254
  0.8566990481050208  0.4990113448927110  0.3445628256515307
  0.6790673282343326  0.5034487077631215  0.1865897074960395
  0.8593335956710684  0.3352009998475199  0.1485744743637148
  0.8536778648741030  0.4936177166396584  0.0059668040831948
  0.6574072290655218  0.1484451539894646  0.8140556875801612
  0.8230053895706954  0.9793844206019059  0.7890333560871484
  0.8456291224667560  0.1866278853840389  0.6763310030771958
  0.6887249203470485  0.1751103125681336  0.5448624884859276
  0.8539269311160170  0.0085388252429536  0.4715819936910479
  0.8105642230979648  0.2020146893127503  0.3385978065653741
  0.6821529237524557  0.1685663116345102  0.1712175390430192
  0.8384972126527755  0.9895333234068759  0.1847801513709226
  0.8542871702936101  0.1617555422134790  0.9777171098181607
  0.3260006875640926  0.8179574286235762  0.8272344172510703
  0.4768463897861061  0.6542707057776185  0.8520199090959691
  0.5294793255146252  0.8124383765705478  0.6936913492839618
  0.3428327598993344  0.7974224189968322  0.5095368225917509
  0.5377738548456815  0.6486369180728372  0.4978280776701371
  0.4797190320479758  0.8536134959482243  0.3171541423980707
  0.3425268521418728  0.8005840866002212  0.1757254072548299
  0.5307476524370387  0.6602988213751574  0.1496070851081400
  0.4845155409899112  0.8573447932693852  0.9804262163272781
  0.3170962860177899  0.4805733175589107  0.8292053279774790
  0.4856267845217808  0.3447173990930905  0.8158450617284260
  0.5077978095639591  0.4825542686669832  0.6590846232993941
  0.3662135699611618  0.4802737255253987  0.4895624954071837
  0.5251017595946873  0.3325242462416159  0.4996344152051642
  0.4877972883191645  0.4828954797019073  0.3322522448685425
  0.3350021933661221  0.5137235404356916  0.1979699538014485
  0.5158534344909947  0.3386666926368085  0.1891751462598372
  0.5289592094532026  0.4792032912867428  0.0009117591880009
  0.3369435295005743  0.1793103094801008  0.8400922595628419
  0.5122390995191334  0.9803393575570344  0.8380911467206222
  0.5089722508207357  0.1646760989580058  0.6717855441622614
  0.3243313931416922  0.1967653915461126  0.5130485675348395
  0.5299660006274423  0.0141946199309567  0.5139693272129694
  0.5037708877794600  0.1637207141330298  0.3351265267895146
  0.3456483987040170  0.1755434457263129  0.1989459355787284
  0.4950499661109783  0.0054479368900664  0.1496796349627418
  0.4886548907577974  0.1585152519439982  0.9859787700570267
  0.0184890411250023  0.8514650162138448  0.8670409678313364
  0.1486537825522906  0.6603371610583649  0.8416353204770678
  0.1885621944239508  0.8646819641117313  0.6553474151083827
  0.9921408017027127  0.8401706394629059  0.4976661765158109
  0.1978434746513296  0.6829019067121519  0.4984749535500633
  0.2099570129441689  0.8365533490561191  0.3521603581651626
  0.9877481151147488  0.8335337042707790  0.2109111150868644
  0.1451335154304109  0.6623835770743008  0.1931506313310153
  0.1749407567954132  0.8348595204752988  0.0169273229617889
  0.9950618385788979  0.4583736288464989  0.8309249862498373
  0.1669596351440088  0.1696476364484385  0.9904597683654195
  0.1631742088297660  0.5045169962750510  0.6744826012012473
  0.9937690394913481  0.5116288658111141  0.5200617741268936
  0.1364556499953941  0.3368476426830621  0.5125916087129141
  0.1581219130678674  0.4999440072813614  0.3373008564581371
  0.0351069975136245  0.4751794059079886  0.1435705890307448
  0.1949599620568924  0.3496919628679158  0.1465899200541581
  0.1742879498029318  0.4763289486376556  0.9855342895975444
  0.9996847740749015  0.1365995380182163  0.8441361042486935
  0.1940417934449983  0.9916898319041132  0.8527831400440457
  0.1835328538894847  0.1440134793191498  0.6707279033131446
  0.9958145784288329  0.1821668587915219  0.5202797475739783
  0.1878340440835822  0.0121353637142264  0.5121874428655425
  0.1545505837227084  0.2106217660084974  0.3449105143520443
  0.9987762987139102  0.1654353825786137  0.1772947027146931
  0.1475132275836288  0.0113401024810468  0.1612997168366001
