Cl O  Li
 1.0000000000000000
    11.7780000000000005    0.0000000000000000    0.0000000000000000
     0.0000000000000000   11.7780000000000005    0.0000000000000000
     0.0000000000000000    0.0000000000000000   11.7780000000000005
 Cl  O   Li 
  27  27  80
Direct
  0.6533795294626986  0.6726173365970853  0.6445463583900288
  0.6415275066753282  0.6773118627913969  0.3207316207167257
  0.6696404538772960  0.6666110831209109  0.9919666971786387
  0.6699581024036385  0.3563498890436863  0.6848964255986593
  0.6695361634613060  0.3321121243097849  0.2879570822014279
  0.6700487492364808  0.3528320308036976  0.9859002096360813
  0.6409493750214702  0.0060153885504780  0.6758178558188204
  0.6828857415621363  0.0361982408971577  0.3383143532802595
  0.6815605731241754  0.9800856740118113  0.0181348941874445
  0.3628459039964932  0.6470052946229732  0.6392173853366409
  0.3369247559175346  0.6847768460729048  0.3550740579452443
  0.3311440061746928  0.6594083643249559  0.0161160968120980
  0.3415923593142401  0.3233055355138829  0.6624014767915987
  0.3489364531616849  0.3295486691235814  0.3340405919513925
  0.3259079471371035  0.3378629148492757  0.0079347514029420
  0.3116106865605370  0.9857017329025486  0.6548198955294808
  0.3623533989846456  0.0027668974551474  0.3157731094069393
  0.3347870453021974  0.0006464515740282  0.9891624138988580
  0.0211751572426018  0.6853313342473614  0.6873103276805667
  0.0029099611749331  0.6562083975237692  0.3481558301248955
  0.0231811106216467  0.6745672758811485  0.0009618369662482
  0.9829801587688176  0.3064848800642425  0.6494440403713893
  0.9980833884950531  0.3328788977312307  0.3157864088641026
  0.9837160759820482  0.3366698503039294  0.9965381527874269
  0.9781330683678459  0.0184621647828225  0.6733277197100074
  0.9949374632321369  0.0113385936981194  0.3612586496521782
  0.0231219032399563  0.9944719892059575  0.0249974242050764
  0.8405713930643910  0.8330114215385175  0.8548957955031721
  0.8337146220963222  0.8290916241487035  0.4969071613629062
  0.8492401290394677  0.8065430321734804  0.1695289687566764
  0.8306467996731604  0.5208306927200900  0.8401416165900901
  0.8372234116044858  0.4961628514764594  0.5028296910113370
  0.8350524219821828  0.4909728243499652  0.1644768956645323
  0.8223319061809073  0.1489750769400364  0.8480168385304596
  0.8183008548845947  0.1745791230456866  0.5139034222781355
  0.8557692920703504  0.1620115307590846  0.1712668353421525
  0.4855866143995911  0.8294083819960276  0.8200948610071508
  0.5049982348714851  0.8373611739818307  0.5157904067497511
  0.5010412313899419  0.8173895593197290  0.1466679609943446
  0.4868827143132194  0.5090491550314147  0.8409633084701112
  0.5166656441895563  0.4826808860851446  0.4857505159765629
  0.4914903993032225  0.4937103667988851  0.1625106407602658
  0.4968059312005123  0.1813021302193333  0.8348464488539969
  0.5014920364295576  0.1688476744107920  0.5020605491934103
  0.4825144600375663  0.1637480309619754  0.1478514811042989
  0.1710427724460187  0.8410966817856246  0.8232904553840644
  0.1466455458037398  0.8322449517576462  0.5003675708061984
  0.1635779511061506  0.8276231373595760  0.1989090991682271
  0.1552194548273984  0.5017934813192658  0.8419615167374449
  0.1584816983104160  0.4791889385075138  0.4838704949954558
  0.1587029713184105  0.4822661535457803  0.1723397796762244
  0.1528815134958800  0.1865467316784187  0.8406410446070363
  0.1754195893858729  0.1630347590097575  0.4700246062542440
  0.1838733680769048  0.1729599090753747  0.1695063677765807
  0.6832653327656779  0.8238957266377690  0.8481183759385740
  0.8143274548120284  0.6620123454065033  0.8193667713948970
  0.8586191410464271  0.7927162930311673  0.6418328237891997
  0.6706187838083520  0.8307659387619357  0.4903743951305396
  0.8117109637388112  0.6505973626193710  0.4833386381651523
  0.8530043005134950  0.8043822448744808  0.3317555751720103
  0.6791542822993357  0.8142870813856636  0.1318412828334231
  0.8479337458317162  0.6429627454702393  0.2060797940049244
  0.8514984052055884  0.8349777169281938  0.0272676030817178
  0.6588021047838541  0.4796484883956751  0.8365754997414599
  0.8377973327757106  0.3092220176590631  0.8229432525084701
  0.8427260265810808  0.5077650792845367  0.6550171404466796
  0.6645726522033926  0.5037485622503906  0.5301303794337980
  0.8160829021867684  0.3318512970562849  0.4880676174433178
  0.7730805952879488  0.4985063899159012  0.3235926031805346
  0.6490345138123477  0.4877372708734466  0.1263120183357390
  0.8443985598362757  0.3144091703214521  0.1533848548710913
  0.8426392258621820  0.5259161865181347  0.0051292949951500
  0.6429514595135283  0.1591772383017748  0.8390043004542229
  0.8421389881370370  0.9915955368874622  0.8823776156496780
  0.8278797028749886  0.1400904727591914  0.6633193620056232
  0.6629640858958933  0.1536692994937734  0.5073604942078753
  0.8290709455768878  0.9995927595547682  0.5026092884396562
  0.8568536532900235  0.1758033411139771  0.3488429485022961
  0.6575186363181251  0.1365618251574554  0.1421899102869504
  0.8228127109092839  0.9959494090375285  0.1928858418198803
  0.8560933372914622  0.1568175259410643  0.0123070244881157
  0.3249657301917086  0.8515960060562788  0.7909403456638099
  0.4859122790371004  0.6643995676032639  0.8537200991986875
  0.5025617824162447  0.8504162612108010  0.6640908114919165
  0.3542177344021705  0.8280391654320582  0.4952418345106794
  0.5196562204505640  0.6615655889078812  0.4840632865175618
  0.5236171105314608  0.8675019139111647  0.3552128824159081
  0.3426447775454755  0.8106866329094096  0.1661859973662503
  0.4979689555716874  0.6486815525358821  0.1798792156266010
  0.5223037638332007  0.8190627403414829  0.9697175650267605
  0.2922376689270150  0.5111485259635444  0.8662903331582880
  0.4894009877819366  0.3421944083727086  0.8562957809786912
  0.4995988172048121  0.5230479571659477  0.6679990300544891
  0.3345800029157948  0.4624978161269574  0.4830751591173016
  0.5188520587530442  0.3267088402864631  0.4555294125085098
  0.5113494240402976  0.4551650177088842  0.3084720717929593
  0.3118827687579987  0.4611293687857768  0.1657060428314823
  0.5144021858909640  0.3029351193212259  0.1244797802597067
  0.4515454695918017  0.5104117724735648  0.9981744693130979
  0.3267028174330435  0.2036178501166160  0.8364176066427174
  0.4803458185690395  0.0326655017386802  0.7989554851809114
  0.5277902656166418  0.2126883835425831  0.6526796748187277
  0.3380838329612412  0.1930704494216651  0.5159802023515219
  0.4887135860066665  0.0227058024363606  0.5226052753185383
  0.5058488738196093  0.1690967710167637  0.3314122588957696
  0.3334680711319564  0.1557284178070762  0.1573549148973382
  0.4698861295147106  0.9755332528715372  0.1376433177805378
  0.4838643650609969  0.1330533494112190  0.9945216175343605
  0.0126891066191762  0.8456192259585363  0.8308348305544530
  0.1502740203050207  0.6659173656216912  0.8451744388698104
  0.1524431577198191  0.8545885256169635  0.6700367417072891
  0.9958802991614947  0.8341864700764429  0.4934010438917984
  0.1898731843728997  0.6798270998543692  0.5110555570871452
  0.1651849081186050  0.8020956289214061  0.3493063445044012
  0.9943888422791982  0.8320148326875811  0.1771003375741385
  0.1478605230772128  0.6737280943040358  0.1816652902139561
  0.1774630297241787  0.8533485384815037  0.9968581640169899
  0.0022290557264961  0.5454997080406085  0.8404794268505797
  0.1449866257676350  0.3402373841419071  0.8464850325601952
  0.1566592981889976  0.4654255185463375  0.6795325946073182
  0.9995781979962866  0.4872116892816828  0.4605235307363333
  0.1394938993524164  0.3190135962359554  0.4987763727395609
  0.1438390364589972  0.5056368827405342  0.3326357684693862
  0.0070158652498296  0.4871693415428919  0.1543391263472941
  0.1535943401085886  0.3299119851923294  0.1785056063956539
  0.1466511631543681  0.5211039287517348  0.0338256752256313
  0.9833255524526555  0.1601708818391384  0.8490186095138673
  0.1724266852137940  0.1449520822403008  0.9949709414506783
  0.1446651412487013  0.0513139595816271  0.7907029392199568
  0.0367780495164980  0.1327688584356125  0.5008660676587163
  0.2019565205499282  0.0087811303525860  0.4642566094155313
  0.1781375976244996  0.1769044632933631  0.3184940325950813
  0.0200333345745414  0.1382247228850861  0.1562292686808846
  0.1804176144557550  0.9971570353624681  0.1707075496466187
