Cl O  Li
 1.0000000000000000
    11.7780000000000005    0.0000000000000000    0.0000000000000000
     0.0000000000000000   11.7780000000000005    0.0000000000000000
     0.0000000000000000    0.0000000000000000   11.7780000000000005
 Cl  O   Li 
  27  27  80
Direct
  0.6929347701145094  0.6767879615897846  0.6825552507044195
  0.6833028862371021  0.6846685680896752  0.3047638463041817
  0.6718704542382882  0.6636464380106050  0.9752701392086113
  0.6653313317965618  0.3503661659437790  0.6556460157106109
  0.6467250066136656  0.3139493980091752  0.3319582605255660
  0.6602588743005159  0.3257800849855103  0.0005863246399354
  0.6687920246377235  0.0000876475407291  0.6804557583160602
  0.6626612380405920  0.0000712882524249  0.3516131375830488
  0.6682549047041286  0.9797553904877012  0.0033759483267398
  0.3582725741305296  0.6605754577254684  0.6685338577111437
  0.3161277482141129  0.6598076519260693  0.3531718663509192
  0.3164243848126997  0.6732545974377913  0.9913466456225292
  0.3414046114793812  0.3163756076557023  0.6639620023089322
  0.3310944350439388  0.3481692656591183  0.3319653454723044
  0.3439146259244719  0.3283850174741912  0.0037510004199848
  0.3248654713277173  0.9847845159434271  0.6454266075642405
  0.3194101635526302  0.0007420266441460  0.3322315167999157
  0.3305754525739943  0.9828240200887236  0.9871195139971382
  0.9882383387456318  0.6881950092365698  0.6632043988328364
  0.0019148143912210  0.6662275853209498  0.3322906862265343
  0.0160120890618195  0.6567459832852175  0.0174697811049093
  0.9903990229333529  0.3252552523738304  0.6691448230324581
  0.0150789522347713  0.3568717664660799  0.3223851412206777
  0.0280129640498267  0.3187477490372626  0.9690268284752442
  0.9921213677922111  0.0061024406510741  0.6734415395887580
  0.0022225394058918  0.0031050574642290  0.3492044986044329
  0.9988405600067022  0.0038661338293956  0.9653337038349750
  0.8192056868076257  0.8433417397110411  0.8406212221475946
  0.8370976469322359  0.8361591421638231  0.5072872714927306
  0.8384534223401070  0.8365275593942227  0.1626527396978552
  0.8504821234564294  0.4986008628656214  0.8392582403367552
  0.8543504234048070  0.4986059640272730  0.5134654260194850
  0.8336095049831387  0.4996558721630926  0.1820482570979480
  0.8183950879299265  0.1777324711429731  0.8409166036984732
  0.8429711082638265  0.1701535416752060  0.4988065497613876
  0.8425218821551984  0.1659796173672362  0.1796465208817260
  0.4655778981129950  0.8369379195093142  0.8469760550033010
  0.4978405188623820  0.8285300715158525  0.4850180288460522
  0.4981127832441885  0.8335125299456151  0.1795487283740303
  0.4911874299916914  0.4896443565967336  0.8728313333202969
  0.5222062984624947  0.4936755293492758  0.4914442779648823
  0.4977090222509162  0.4925147721610570  0.1756945375910147
  0.4897317770775130  0.1559366750014159  0.8296434413023399
  0.5089228735214963  0.1622022172855129  0.4976939297255802
  0.4881807810229398  0.1464354577845705  0.1630907715906366
  0.1467019351121357  0.8363968724909558  0.8216661151581166
  0.1744387728558161  0.8383150712136305  0.4928618341083128
  0.1589968581628320  0.8464944195534246  0.1607711600284657
  0.1629525863539622  0.5230316620340881  0.8127186776210540
  0.1438915594107444  0.5070498440355761  0.5116733798341646
  0.1697607343447002  0.5087929838456962  0.1770017507496699
  0.1671441521793107  0.1504663066538334  0.8187642829156845
  0.1679292857341615  0.1834969052656116  0.5070805529896073
  0.1765662406624400  0.1646615541187186  0.1655838732557272
  0.6704682825506326  0.8405712421384347  0.8542903111036244
  0.8596981412029944  0.6792084627935110  0.8498157826268946
  0.7997365770536254  0.8583564827224587  0.6714103865723672
  0.6640320740209587  0.8405590965154545  0.4847918773461606
  0.8317683904809784  0.6854609485329044  0.5277073835260817
  0.8408411708471967  0.8242125454588467  0.3588448034471068
  0.6832881495478860  0.8486326969645009  0.1654750585951770
  0.8607408024504358  0.6796287823194461  0.1621079477790778
  0.8234849946376538  0.8590699975871362  0.0030100924311029
  0.6669358900484775  0.4731258640041359  0.8577197492083173
  0.8638155073932863  0.3187018183396924  0.8230832664474479
  0.8285266427367399  0.5147374970717211  0.6878609446470954
  0.6823903450971887  0.5198914516979642  0.5494659836972620
  0.8498240736033617  0.3425453563943610  0.5197107053559100
  0.8392939804211575  0.5023586376448791  0.3236534074149764
  0.6650344118001055  0.4972481643489053  0.1696362603630750
  0.8435843812535073  0.3353269292593513  0.2070355889540731
  0.8281954720834793  0.5241724599152094  0.0074139011202770
  0.6394200621576271  0.1776947184982096  0.8343401537087879
  0.8106653705528598  0.0320779903670471  0.8315027742389705
  0.8231776294054347  0.1686359258411235  0.6580213351968508
  0.6829603796690600  0.1818652622744499  0.4893451094598024
  0.8406748567831878  0.0003075016023176  0.4875160191243924
  0.8324043353002222  0.1647400452072282  0.3343547943666114
  0.6620572766951959  0.1489834677868842  0.1829332479164012
  0.8357972555651545  0.0076651616599148  0.1627093484222955
  0.8420320896658166  0.1922234341633691  0.0037910816084040
  0.3277878904011010  0.8365691783956349  0.8207214286027157
  0.4670258992846960  0.6602578091991258  0.8776866675628665
  0.5158006564173209  0.8149711838456629  0.6734244142603557
  0.3401779440437898  0.8159834810356537  0.5089002911953225
  0.5037308626099153  0.6506827668372658  0.4814216693962014
  0.4977933938452187  0.8399887380603037  0.3271831481227807
  0.3252331598207381  0.8246010434525739  0.1525906376117836
  0.5076890401683465  0.6702152362578130  0.1796015618339943
  0.5171952168479089  0.8167175624885779  0.0080599426212077
  0.3316340853156546  0.4759431222252159  0.8186546484255831
  0.4979490602464151  0.3203467607880174  0.8457683752249686
  0.5008801229548199  0.4787354819191865  0.7030018401958674
  0.3322846656105897  0.5200266729671439  0.4902616586552991
  0.4842424818007863  0.3341417188835323  0.5320221160898019
  0.5144707916718075  0.4612227891148387  0.3274968898070645
  0.3295080344983785  0.5099703400519880  0.1454877254726684
  0.5096244451902434  0.3162216618844281  0.1646012215071607
  0.4952030158614090  0.4673190416572965  0.0308378142268245
  0.3260647908688982  0.2140144631479066  0.8373567216029730
  0.5046912170189606  0.9758013829264931  0.8581646838634922
  0.4994629311800787  0.1285070911550774  0.6501850602208380
  0.3195682590784226  0.1590710250744519  0.4790623416468853
  0.4982804333267252  0.0160989026033675  0.4911737949411131
  0.5111655223193825  0.1728465096877885  0.3258819268047957
  0.3261489802788561  0.1657318770224973  0.1554644741932465
  0.4819101983053060  0.9946231493205997  0.1838474894435317
  0.4699438447202819  0.1591622285816808  0.0099663885558956
  0.9814082337458497  0.8553775662595120  0.7925353242649972
  0.1525804773626732  0.6860361652372471  0.7894543035981969
  0.1467441310306395  0.8482692999249328  0.6747044009808304
  0.0141844068595737  0.8623132028061321  0.5092423929092653
  0.1757833540478405  0.6779404192689669  0.4846578706392789
  0.1707165442664805  0.8489091313435304  0.3328237373764309
  0.9906436351475899  0.8335073478131435  0.1816878154933053
  0.1380698283116968  0.6845050070335417  0.1749362256202451
  0.1874265935761810  0.8422559210166100  0.9737586594444719
  0.0066017653857832  0.4830879468849654  0.8480894847473072
  0.1991857225904578  0.1539254104426552  0.6738191874926227
  0.1325647842105058  0.4655980878518204  0.6620248968998182
  0.0096999069528939  0.5399956560775999  0.5022267167072053
  0.1519480446527411  0.3468553521651189  0.5005402969564029
  0.1638895604387707  0.5005650934993912  0.3521726864337472
  0.0256334745663634  0.5059550375801397  0.2171073872958238
  0.1557333090253441  0.3342204225204441  0.1379428847200656
  0.1461065870377031  0.5159305211316575  0.0189720010966953
  0.0152888260695313  0.1554907180896400  0.7798748888120639
  0.1737456221523355  0.1537548960173655  0.9897199991736592
  0.1563411569700937  0.9959271808953601  0.8131422359797841
  0.9956822136302430  0.1881564925511501  0.5064303168206568
  0.1528158899000872  0.0193678881723081  0.5077011133530763
  0.1811146550122996  0.1723926682424279  0.3306123028296039
  0.9990501208702658  0.1484500219042408  0.2059242846940887
  0.1834632338852783  0.9874259612111922  0.1451891152103474
