Cl O  Li
 1.0000000000000000
    11.7780000000000005    0.0000000000000000    0.0000000000000000
     0.0000000000000000   11.7780000000000005    0.0000000000000000
     0.0000000000000000    0.0000000000000000   11.7780000000000005
 Cl  O   Li 
  27  27  80
Direct
  0.6812104511081934  0.6608260465811410  0.6471408799460143
  0.6740486225762716  0.6613785104851009  0.3404327259300108
  0.6683171840627294  0.6733373742692872  0.9759931946472794
  0.6532187172235682  0.3410541009730315  0.6588607178699502
  0.6808847864706838  0.3262622301433007  0.3194123974516828
  0.6428576506278387  0.3319554301871602  0.9991051785823682
  0.6973315794022883  0.9573249545315802  0.6384802410529244
  0.6908459786724949  0.0130813763264131  0.3372762404590935
  0.6779116594213578  0.9939267705210556  0.9891451381588405
  0.3388669582974279  0.6719092514338639  0.7049993485055398
  0.3308833164292550  0.6923112260035647  0.3431339934516299
  0.3431416507907234  0.6925700087438629  0.0110252439014163
  0.3432718518690713  0.3485311893921096  0.6935698314562411
  0.3042944627269593  0.3253971783892401  0.3233297657169004
  0.3249897338489269  0.3275984510981737  0.0343708481037989
  0.3265310538905258  0.0273857357665778  0.6547427443985091
  0.3005855740801968  0.9973302821487772  0.3351946223792199
  0.3405950375350524  0.9993544755492396  0.0103951618755985
  0.0099926817693552  0.6485664571719646  0.6581413731062420
  0.9981142843188742  0.6340950688472717  0.3156863429911083
  0.0208518390983341  0.6750301502294495  0.9926668140464692
  0.0069256943577733  0.3198579038739499  0.6665154562678187
  0.9838236744197661  0.3282680190503679  0.3284378301309833
  0.9949623961560302  0.3264367829882313  0.0059181410158194
  0.9951844510385041  0.9975514227884588  0.6633389305189841
  0.9886885733404327  0.9776156979678251  0.3366068951766540
  0.9870063615419251  0.0215790905434068  0.9878467584105652
  0.8406491208605920  0.8182582594172084  0.8254593133400034
  0.8457528735785168  0.8249842625111903  0.4870948075883754
  0.8463081714611721  0.8283758872430047  0.1655505119468783
  0.8438848767641600  0.4972184322261946  0.8337921823542673
  0.8404177062574089  0.4955578421669302  0.4947535945272374
  0.8550679186377805  0.4936515461547759  0.1429394408627744
  0.8336083841897828  0.1803104650022290  0.8324386741293525
  0.8342155033971538  0.1638195227310914  0.5219037581955638
  0.8407466097277130  0.1562260590011579  0.1452482731845502
  0.4955682475425462  0.8323977888366719  0.8238395730593625
  0.4922705489617790  0.8455314987317342  0.5241389981634320
  0.4863848205509780  0.8516830948295718  0.1838495731110800
  0.4923269046524071  0.4943776924673528  0.8564424736792449
  0.4905451417612099  0.5042434605579492  0.4728864934574339
  0.4958333055213843  0.5069468333208850  0.1838468201032045
  0.5029552559245211  0.1429806802241451  0.8291708537811167
  0.4741943802219690  0.1696703527185291  0.5186672735546167
  0.4830731545037836  0.1617581979629473  0.1702388033880601
  0.1698825576199614  0.8520910258200672  0.8437213101114107
  0.1650006851911801  0.8524987948689229  0.5146578819526189
  0.1611495308139095  0.8378215382347156  0.1553609010622195
  0.1765464965805144  0.5107225026513336  0.8265917712266784
  0.1766428316134524  0.5027640831935495  0.5167647022001765
  0.1699920301684231  0.4989439203975834  0.1613817191646177
  0.1688967986161825  0.1705469225717160  0.8376708465675883
  0.1512094618747316  0.1796023751824826  0.4842756465530285
  0.1615404579322326  0.1564817749716538  0.1755469871834468
  0.6576232059411123  0.7854162519662554  0.8013768101531993
  0.8580019772665203  0.6740833179473219  0.8288474563265635
  0.8489471724223124  0.7960562225510207  0.6399721284089938
  0.6848128428841241  0.8270661842316384  0.4810149516369409
  0.8178597216670809  0.6644513530990945  0.4873688938136289
  0.8673709488918161  0.8110356622849758  0.3244287826549699
  0.6636715237582083  0.8314568269389851  0.1663639144392156
  0.8737940401486715  0.6666297920368254  0.1742237822878676
  0.8024537276540609  0.8055998482347718  0.9984848981375539
  0.6446828948493049  0.5132463226212116  0.8341714496745294
  0.8614650992322779  0.3478469859642244  0.8255553447323671
  0.8085030576064050  0.4900972105604368  0.6678417178118481
  0.6561971883470055  0.4927207865803924  0.4703152245871131
  0.8634283177307995  0.3317906950541387  0.5156292888785763
  0.8508720107522164  0.4660527231735606  0.3236555720533446
  0.6567427292458667  0.5198428533742243  0.1813756109235357
  0.8031607648531488  0.2998570587458757  0.1246940532307927
  0.8676025254366386  0.4743145807788001  0.9986297895683010
  0.8304571618221568  0.1510945332920183  0.6816410483316357
  0.8272920124735137  0.9619017542144798  0.8002025713234725
  0.9963619993075805  0.1452922756751490  0.5469746721804976
  0.6722631755127704  0.1481727619851935  0.4779655905607089
  0.8534789472686891  0.9910023385636967  0.4986697077447473
  0.8738463472983062  0.1545753777459747  0.3490777779402761
  0.6721419621954279  0.1369857626627522  0.1829928411087609
  0.8386608014079112  0.0024036527805922  0.1967363422482496
  0.8260620657197174  0.1168677426369765  0.9800373834591155
  0.3305917607496150  0.8519432540738080  0.8254602849898420
  0.4808545135539882  0.6679730169676170  0.8610383774149571
  0.5006758463744148  0.8405758416433481  0.6741105596568547
  0.3346637630380758  0.8572840083814869  0.5255187814193940
  0.4633128331961276  0.6532647889948101  0.5077828115792600
  0.5029585757281357  0.8366792828788364  0.3473667835456437
  0.3047637695989147  0.8568474946915781  0.1721483179903040
  0.4673651798180654  0.6731991570797724  0.1964624179646359
  0.4931299732438588  0.8374773312794562  0.9859396413036908
  0.3303899612237988  0.4966447134820193  0.8450374098175465
  0.6599156517932174  0.1996055482216279  0.8240586800979254
  0.4962969849213590  0.3894321415737127  0.7681306773402848
  0.3474106753266283  0.4539130920340188  0.5048514249875758
  0.5145101967737956  0.1666480865028956  0.6889374908515882
  0.4303281146751570  0.4875528644877221  0.3256486890271024
  0.3698503615491290  0.5147531490935467  0.1321726497313909
  0.5058786264050382  0.3234690809838364  0.1401125774781875
  0.5173567259462578  0.4930551555810375  0.9851802299010077
  0.2040198350336391  0.1621476473638078  0.0127726736569079
  0.5306930653180399  0.9890529667079572  0.8247526000241948
  0.3258559596798757  0.1592766548823928  0.8184239207433058
  0.5002046366881926  0.3466752572299134  0.5536949668316787
  0.5199019626979910  0.0104691817673252  0.5373029506597150
  0.5032867099756511  0.1878319861587097  0.3539359056761311
  0.3088889292306188  0.1729263918124743  0.1855750410397639
  0.4538858864638061  0.0176063483587518  0.1943073391084370
  0.5108779267653334  0.1518230581224289  0.9928037363354505
  0.0118708922935367  0.8114712043250460  0.8276452015931621
  0.2000478317077155  0.6679367825257260  0.8313437867030963
  0.1974552675117693  0.8044232612512687  0.6761687974124913
  0.0092089202903504  0.8458424266800276  0.5021636391074649
  0.1950884702043203  0.6390540052538627  0.4687064153671542
  0.1566630186558391  0.8444618742012768  0.3211498288190021
  0.9980991627019715  0.8339147771469004  0.0949064169255509
  0.1667386529901811  0.6619262375960986  0.1681903226162175
  0.2047470542095794  0.8276719269350716  0.0087860679926010
  0.0122894405827873  0.5490478945091628  0.8237735008703502
  0.1556345880299896  0.3369815926169465  0.8378483346047390
  0.1667991887993850  0.5079752841894393  0.6733711341298194
  0.0049605616584633  0.5109478444430264  0.5138285383301202
  0.3094631540424183  0.1770130498193312  0.4888464898199915
  0.1676408804719136  0.4967601373857413  0.3428771135255984
  0.0156274664273561  0.4790805637216453  0.1207017262290821
  0.1720379401167348  0.3107086465683660  0.1813831209670784
  0.1839066428929980  0.5223474832597939  0.9968601536388404
  0.0133102865201194  0.1615678861721999  0.8486062796740520
  0.1764093724970678  0.9968282089796178  0.8469513980575880
  0.1797945802914075  0.2031238113157159  0.6421265594986337
  0.1424628724563518  0.3269041060751000  0.4730505403384866
  0.1718352701546051  0.0013109193046614  0.4936628770982046
  0.0956375080547558  0.1573752272407831  0.3261590885901408
  0.9847410042245731  0.1680616042266851  0.1215945813384149
  0.1273611364203384  0.9848534834546284  0.1386308620813640
