Cl O  Li
 1.0000000000000000
    11.7780000000000005    0.0000000000000000    0.0000000000000000
     0.0000000000000000   11.7780000000000005    0.0000000000000000
     0.0000000000000000    0.0000000000000000   11.7780000000000005
 Cl  O   Li 
  27  27  80
Direct
  0.6536414628290541  0.6907459071853127  0.6875350640654350
  0.6796253228080007  0.6364012483247825  0.3221145232235773
  0.6704529483333446  0.6725772292838037  0.9955770626591439
  0.6756596149633216  0.3405745603638006  0.6732034313758345
  0.6549358623554654  0.3189970716739602  0.3272388425297486
  0.6833922472899037  0.3356278910364199  0.9874026959225255
  0.6591165477268940  0.9859889071128356  0.6562868457473554
  0.6721215545037760  0.0011184430249061  0.3036659291977842
  0.6745170762095731  0.0061266549197705  0.9776677602296381
  0.3293537543541968  0.6841159354836944  0.6728170386234240
  0.3402553619006606  0.6534852411233387  0.3514384295220820
  0.3406794060843097  0.6559342845410687  0.0114645705277990
  0.3210742451102260  0.3130323562283781  0.6647653407811520
  0.3345081543199491  0.3212801653963706  0.3588490813834584
  0.3031155447873397  0.3217569215837538  0.0043415836349095
  0.3203863979954466  0.9941092353159600  0.6752082283903582
  0.3236951490931260  0.0090565239411667  0.3337640582331625
  0.3557626099239259  0.9871181388184064  0.0109918540252257
  0.0241716649712614  0.6966521616989503  0.6644001218981371
  0.9900888499227131  0.6771852786424960  0.3368559087471202
  0.9978592554135191  0.6605438723453386  0.9902775028886576
  0.0148525802271877  0.3431885008561919  0.6579891762642620
  0.0229515333990362  0.3451060922977177  0.3333809852843667
  0.9765394782216117  0.3576170556171746  0.0217640600801879
  0.9657092300056638  0.0213794281033882  0.6535591817384594
  0.0143073821891419  0.0055654600841245  0.3456230647537465
  0.0230216667807325  0.9923090553587501  0.9870601235656923
  0.8227306397474299  0.8472350528823769  0.8116898083812991
  0.8190909204235398  0.8226499638166513  0.4922198839312973
  0.8502025814539119  0.8449101377315045  0.1718797255947636
  0.8221769612811721  0.5164436264567803  0.8355312614373559
  0.8173470518760410  0.5026116646965857  0.4909067801454968
  0.8421730291308739  0.4930324928229123  0.1658327741602529
  0.8329091576297668  0.1770807707388838  0.8356037303211380
  0.8420240428223168  0.1764002717260075  0.4762980248248976
  0.8445696034573293  0.1729496597519193  0.1648015399197655
  0.4845578324118394  0.8308976515284140  0.8442208878839585
  0.4960498994194862  0.8326808718943689  0.4709924928238615
  0.5193844751431691  0.8284751665396007  0.1755910636088270
  0.4835882068439192  0.4967382843358149  0.8405505615901583
  0.4826678520198886  0.4934227316892666  0.5158621892558887
  0.4802757310885260  0.4779977095335774  0.1814278654017225
  0.5155650815699916  0.1581742563626792  0.8317817456817247
  0.5059951808551931  0.1666824272019575  0.4876142232117910
  0.5023189841769525  0.1655649185529007  0.1628776833610524
  0.1775346411784343  0.8115433583969867  0.8463605417989727
  0.1735226180247907  0.8284761381894392  0.4846932413704599
  0.1715706342275260  0.8311742478490833  0.1525845411618397
  0.1511431336068620  0.5053083573668822  0.8546083914523751
  0.1730362263098432  0.5181358356212034  0.5080373311654772
  0.1750069750946124  0.5034491054010715  0.1768814348369496
  0.1511451072705963  0.1583935658282919  0.8351648684774530
  0.1632645260692285  0.1553491743361295  0.5092671159776335
  0.1783540051473844  0.1566289383868494  0.1714778269303483
  0.6521684821594240  0.8443768639118535  0.8590174955066515
  0.8172398465105358  0.6838804723395182  0.8130688224144724
  0.8067789833793187  0.8510651346037766  0.6440805756230621
  0.6565356028435989  0.7980711904748758  0.4722119133710748
  0.8061277350751199  0.6514129954158649  0.5222394105432888
  0.8000404298082575  0.8019098551031818  0.3222469509994715
  0.6777210510663431  0.8449186396675906  0.1376732991009185
  0.8542316894505476  0.6721431447184908  0.1519382017135952
  0.8195020092760102  0.8431043265068066  0.9754110958889002
  0.6448665336237206  0.5021088763906149  0.8626561622098833
  0.8098136077663348  0.3516246076657877  0.8207965155210423
  0.8184070408789340  0.4997000349849494  0.6737684862422838
  0.6681793686822687  0.4824200928023124  0.5127563510327988
  0.8511478348050521  0.3339200747464673  0.4941924545595137
  0.8456909683416826  0.4959664299954223  0.3306679769938668
  0.6645946690304790  0.4513599696987863  0.1853885935409795
  0.8338697144658620  0.3278412511729861  0.1840978174587575
  0.8363506603866200  0.4733980001693314  0.0072818931476846
  0.6596609145488672  0.1935425837575738  0.8472696011936315
  0.8009792864646279  0.0014153960739040  0.8312288769236654
  0.8264997504414692  0.1747536491331702  0.6629889219640662
  0.6666373603887010  0.1829762561334787  0.5058349653504753
  0.8150435130216142  0.9988854669189253  0.4928965165875250
  0.8473022066862375  0.1634844441858578  0.3222433680406923
  0.6752104293401036  0.1905048824794029  0.1596858946126725
  0.8263880107100514  0.0071194362444195  0.1528738094158185
  0.8616149326893988  0.1623984635497870  0.0000506511943350
  0.3377577764764197  0.8344487078045485  0.8842762617936795
  0.4981796344090664  0.6634258262514933  0.8237138131900693
  0.4915138736050665  0.8551180480214535  0.6704883988148378
  0.3177154338031632  0.8502088681836717  0.4900666269185455
  0.4938673309699422  0.6377354045237489  0.5355022688960406
  0.4935702490318462  0.8024578656120488  0.3247428765219051
  0.3274385110664471  0.8265103286246821  0.1548157325887146
  0.5364562008625153  0.6668328759244925  0.1824287861915217
  0.4912461435891727  0.8296211465531939  0.9952347572529825
  0.2985306125977196  0.5155431904544374  0.8756233151284769
  0.4619670141540549  0.3321107817765150  0.8273099702128702
  0.5038983605038895  0.4646774428695391  0.6828573798016560
  0.3107270650101038  0.5032657874648901  0.4972575239747999
  0.4975792357797446  0.3219549559664461  0.4915828864913951
  0.4877246011768801  0.4823065312274474  0.3505604224368425
  0.3339946373803458  0.5095022814673593  0.1828285998573253
  0.5050251099477636  0.3261765113592033  0.1591608089671805
  0.4818018286159896  0.4795457501532254  0.0222757083650890
  0.1831938334779492  0.3152108761369288  0.8364724662475026
  0.4910069557872824  0.0095535051211501  0.8560820603739742
  0.4815469729604548  0.1674268627984722  0.6872882650064772
  0.3209185382236197  0.1429148903830877  0.4871136211179566
  0.4833877635793357  0.9897229283429835  0.4751879148845062
  0.4893421147599747  0.1682918841884754  0.3349921629008067
  0.3353738335978638  0.1754450589640237  0.1685970875864917
  0.5080988837261857  0.0174668320558664  0.1574710896554684
  0.4767621643019903  0.1649817667082108  0.0046426461111619
  0.9769319070956095  0.8324471091374096  0.7906525367589136
  0.1903757427731982  0.6712470811404208  0.8365763518093932
  0.1858623685456365  0.8319349687017440  0.6795818267401226
  0.9796897985236975  0.8538361989721219  0.4869023682489209
  0.1716424351020440  0.6862676540508690  0.4995615891395561
  0.1541708046247217  0.8617628373831077  0.3307093328401144
  0.9938831124939662  0.8543670436671771  0.1639493726474164
  0.1643671360874296  0.6564424978919707  0.1723999023843010
  0.1589462915175489  0.8054903847577481  0.9930572608662018
  0.9970628592446191  0.5387123832785397  0.8277896413497687
  0.2203884678363208  0.1661939909738083  0.9901575924525350
  0.2080312681037934  0.4790963621029575  0.6873834866906421
  0.0214744434602977  0.5206494532677782  0.5152466895686615
  0.1531026375690220  0.3321392025342887  0.4915207818725563
  0.1687898331180915  0.5035814926915556  0.3298819730027023
  0.0189033770170265  0.4809379624300371  0.1564032566044007
  0.1587057676971307  0.3341913877211403  0.1702013320764805
  0.1625395740762446  0.4987822307417447  0.0090421601839604
  0.9814111457967515  0.1546842622060778  0.8308651560008180
  0.1804737199980058  0.9691718852287367  0.8413331445641833
  0.1506040096454753  0.1915170582131638  0.6678741344391671
  0.9991011446120517  0.1618234796365514  0.5083127534092584
  0.1346411084547550  0.9981895323690733  0.5205959053270164
  0.1569567777452752  0.1361637458495368  0.3355654565481777
  0.0160179616083225  0.1311472189473149  0.1694520787161837
  0.1879226305717699  0.9921054105838593  0.1461974819198257
