Cl O  Li
 1.0000000000000000
    11.7780000000000005    0.0000000000000000    0.0000000000000000
     0.0000000000000000   11.7780000000000005    0.0000000000000000
     0.0000000000000000    0.0000000000000000   11.7780000000000005
 Cl  O   Li 
  27  27  80
Direct
  0.6786699797152996  0.6406564603086471  0.6423257589966002
  0.6624186503428569  0.6501150261461270  0.3257586181961641
  0.6880095589329833  0.6707545286159106  0.0095814486788261
  0.6732062307322414  0.3334965700885996  0.6509092731837657
  0.6592407885754942  0.3383621471398825  0.3627389430370498
  0.6664855312269609  0.3003568734184017  0.9695583941453390
  0.6564806552678311  0.0007294484625730  0.6244889400003202
  0.6782431825237751  0.9944422429258735  0.3317556005134637
  0.6783744767081912  0.9959952660975736  0.0005637482383846
  0.3529440068098306  0.6503754283028227  0.6848373017561994
  0.3285381668965882  0.6663306878724180  0.3360776406936771
  0.3471679533745410  0.6605637841397736  0.0137663818553753
  0.3280215528231249  0.3452699702098782  0.7149108359050427
  0.3188570122752910  0.3578302042732247  0.3143151741658480
  0.3327623538409911  0.3193502998483820  0.0202030547020944
  0.3174885851768154  0.0288304571339211  0.6509968026400430
  0.3381001122283346  0.9820184807513228  0.3241795252670969
  0.3583820070721708  0.9910057394845628  0.9818874463966096
  0.9888182070900304  0.6916978336018392  0.6531248372424059
  0.0123890037941566  0.6963793234941519  0.3359616702369210
  0.9843725877263313  0.6541640529644502  0.0193677496029828
  0.0227581737977182  0.3096646715892872  0.6633539618871603
  0.9932163933678999  0.3508916932624990  0.3299318137667551
  0.9909972438201423  0.3264022307350379  0.0219875895787029
  0.0082162213012639  0.0114411183129660  0.6526508745483081
  0.9928494709347451  0.9992902279595171  0.3304394805646229
  0.0062099250614035  0.9992986323194395  0.0261989325268042
  0.8230808701542818  0.8577723049548864  0.8328028921582100
  0.8453999908259990  0.8473239923007491  0.5065543740667222
  0.8315329282153915  0.8206150386298839  0.1803361997899799
  0.8339944411393813  0.5068107639022817  0.8410279080404096
  0.8545054834034440  0.4903029189724968  0.5028980557247591
  0.8275567751349495  0.4875354578056357  0.1759139177347698
  0.8392899327587535  0.1805255862720987  0.8275488575986102
  0.8307546366948196  0.1772051956190634  0.4868437688424652
  0.8254504002269014  0.1700943989463635  0.1826366819959570
  0.5249576473147917  0.8538165565210514  0.7905531280592444
  0.4832940714662610  0.8207156043881603  0.4859706604918277
  0.5140452504065804  0.8452487911583501  0.1694343999378189
  0.4786916090941395  0.4959798641242678  0.8442635020023382
  0.5016779698069794  0.5161946746438433  0.5032648940241715
  0.5034762102600198  0.5038798631355169  0.1744752889354687
  0.4977772005598348  0.1547992641070952  0.8340038513584935
  0.4811943766508519  0.1508444569590410  0.4944625966817224
  0.5052666370289427  0.1903728525303553  0.1876404559940497
  0.1516183829595903  0.8163105488748771  0.8331173828225776
  0.1722967109375006  0.8482839013702853  0.4939606180839502
  0.1924561171735814  0.8287959254152556  0.1508312731023076
  0.1378348316283243  0.5005142705222902  0.8338859578447656
  0.1592396500447960  0.5017851075401198  0.4932730948524504
  0.1534520076609129  0.5058572920129252  0.1544516404002492
  0.1452062632488271  0.1494369614399791  0.8457783041004303
  0.1697777694595196  0.1537841430597616  0.4953527089045323
  0.1529538043276171  0.1594808653342853  0.1868457881251594
  0.5138901103157132  0.9733667332234772  0.8574955914435400
  0.8222415266355294  0.6782218195657848  0.8537659135387765
  0.8268311146472918  0.8514542328514000  0.6602248445533585
  0.6536246120240343  0.8330744235370848  0.4958951324268285
  0.8314862890231475  0.6678556518084036  0.4914772430385962
  0.8594241368271506  0.8157126603409710  0.3167090157271330
  0.6701886102173978  0.7936043067133707  0.1982828557034108
  0.8595674551783169  0.6553862265195389  0.1649355093656611
  0.8384588482636276  0.8555315994566770  0.0028983601193744
  0.6610950608358832  0.4940172933923052  0.8351251352720267
  0.8102861850820073  0.3442077545094387  0.8374936936948076
  0.8485011732269465  0.5038415234523095  0.6733346680565595
  0.6901326138299244  0.5001839500626384  0.4931675493887523
  0.8349949165896713  0.3340941549819310  0.5142390311825321
  0.8307630576600857  0.5168988373788260  0.3276287607372473
  0.6596440637438472  0.5064641278224267  0.1679372494784581
  0.8331471624802815  0.3182345017078949  0.2190947855341035
  0.8383658937624190  0.5102682179106488  0.0218635701163844
  0.6571950203261173  0.1537733739407191  0.8163054114933681
  0.8596817859759708  0.0305655276957737  0.8214446294303953
  0.8723590633594365  0.1820591938431052  0.6589047367916392
  0.6530370472696616  0.1603275468335884  0.5264027916263946
  0.8251945324361183  0.0002335268616777  0.4890439079599206
  0.7649205018928781  0.1589013672978420  0.3549016154403787
  0.6852510450417175  0.1680383676455682  0.1506272772430025
  0.8418976789834249  0.9877207659742053  0.1636617067915540
  0.8234008668344004  0.1804994124545764  0.0032654369031546
  0.3954887880909855  0.7861722380701390  0.8471875202494143
  0.5046778577122720  0.8589181230268398  0.6367790554085868
  0.6737341199923714  0.8196676800374274  0.8014336629498375
  0.3318786585556558  0.8113344061690642  0.4978843020731177
  0.5004966055451042  0.6631580892083470  0.5090334981440331
  0.4822806406847922  0.8113676042052103  0.3309305483444179
  0.3535121790528449  0.8395783236721687  0.1442289731783793
  0.4846131670927319  0.6552459040887075  0.1824765824423728
  0.5501136616314070  0.7956108446005216  0.0184313688824637
  0.3040279758392408  0.4999202281023280  0.8323705079801145
  0.5173230301656603  0.3003940592674260  0.8332449928346899
  0.4854940891274866  0.4997963427479298  0.6964379911186991
  0.3293937045793143  0.4952058235717389  0.4919667521301087
  0.5356103303182760  0.3480116016852013  0.5267614923584102
  0.4976948532360289  0.4600152574905122  0.3630869961062528
  0.3136153662511307  0.5161889662010427  0.1807614585359271
  0.5114290427312329  0.3467137608989459  0.1733946726162142
  0.4927421920679779  0.4671497583707285  0.9945079992926662
  0.1586509921843551  0.1661309684059933  0.0190960201447766
  0.3069421156462930  0.1596358940902752  0.8445047950455450
  0.4724607020782410  0.1462073491973684  0.6536679085312611
  0.3344826801226132  0.1826226090504522  0.4710295199556702
  0.5002864457821365  0.9922715480879616  0.4516936881711726
  0.5316939337028967  0.2011394007492792  0.3533549108392586
  0.3458937965530969  0.1878843763233496  0.2164834765933579
  0.5328966742612172  0.9890012397847683  0.1892863296068032
  0.5012093107015831  0.1435503221074547  0.0166238307019983
  0.9937720518237374  0.8198075166433397  0.8030741317603650
  0.1931109079511497  0.6569971409808145  0.7998589424450431
  0.1620496917415553  0.8488129647073032  0.6735987139001495
  0.0100599717831617  0.8682489573959777  0.5044267848038686
  0.1880092402318364  0.6839720837949462  0.4967319253647551
  0.1703962650670819  0.8238592964695385  0.3373569391621829
  0.0415780822910594  0.8792062526238057  0.1536300396124003
  0.1438736657381432  0.6714380033064171  0.2063949780200094
  0.2120676950851398  0.7985690325335820  0.9784029607860972
  0.9766855166679541  0.5024827926095130  0.8417124353515744
  0.1374952906165600  0.3520191714437521  0.8557148811730012
  0.1357464221209343  0.4763675979607406  0.6781255900119242
  0.0131288430314746  0.5328035711568236  0.4693398208866630
  0.1691359340131302  0.3315022587952487  0.4843419324501812
  0.1342117720506221  0.5094607768949243  0.3328240712097379
  0.9866512394401705  0.4655244311035165  0.1542331710068927
  0.1711174316742369  0.3373812261425906  0.1841040756790163
  0.1343846346296879  0.5404508197538546  0.9995621754120809
  0.9992586435923281  0.1700646219273570  0.8544755418041003
  0.1820567716227593  0.9861726734826260  0.8388744081151983
  0.1392821243053513  0.1779357953267331  0.7054315820230865
  0.0045270171036206  0.1603794693718288  0.4858560462963045
  0.1662604577725651  0.0119898120131258  0.5076954148603031
  0.1444777181757115  0.1383568132357061  0.3451743074517566
  0.9873246016343770  0.1865234390257119  0.1684223557816403
  0.2127430524509544  0.0044762367509291  0.1731575090848206
