Cl O  Li
 1.0000000000000000
    11.7780000000000005    0.0000000000000000    0.0000000000000000
     0.0000000000000000   11.7780000000000005    0.0000000000000000
     0.0000000000000000    0.0000000000000000   11.7780000000000005
 Cl  O   Li 
  27  27  80
Direct
  0.6746585339239000  0.6532329098080865  0.6675833398553617
  0.6665331931209578  0.6732884507249813  0.3283694299606125
  0.6484094945098854  0.6876528765966285  0.9743007197270663
  0.6838221635500102  0.3292276477956338  0.6731385048940511
  0.6595222537118604  0.3015778334406066  0.3467922955083925
  0.6641613148945622  0.3625010272894341  0.9962593393311950
  0.6962103751065470  0.9928881861915884  0.6688478611492417
  0.6500923920300236  0.9991360423610972  0.3283467581310495
  0.6926761607609451  0.0041852254908148  0.9984731266180361
  0.3205522076838487  0.6529730339617198  0.6643081511625178
  0.3276980039934366  0.6585486846178359  0.3233458788397670
  0.3307157864499200  0.6683093120988335  0.0207029116464958
  0.3238073560987753  0.3442163586884639  0.6717241875834155
  0.3399610346624574  0.3259818717531069  0.3461212498387358
  0.3372027231982412  0.3385258914097748  0.9834655563244605
  0.3206143932735074  0.9883224118244659  0.6884064436591963
  0.3314010627411685  0.9966883172495282  0.3297573102985614
  0.3584040821870895  0.9877513385487959  0.9906391699061803
  0.9862074362912876  0.6721246166456076  0.6695042915859122
  0.9942295019764106  0.6700088086370446  0.3345801549996589
  0.9913843429820406  0.6511041869537545  0.9911467974838072
  0.9939539816820270  0.3316593432152070  0.6905976759864662
  0.0146053691499643  0.3516584677133590  0.3184909292085918
  0.0105788224880915  0.3625311889198348  0.0102579535881222
  0.0133919455040975  0.0146368857822860  0.6608986723649225
  0.0070576710130385  0.9947381935670745  0.3350221949480237
  0.0128076701892819  0.0004368069530512  0.0060378107566210
  0.8232181262604630  0.8540517980248873  0.8430370661278281
  0.8295587892226924  0.8361962747692181  0.5081347511775294
  0.8089521204203654  0.8179888523304021  0.1474722986235796
  0.8409380233928533  0.5065663342692192  0.8228928216777678
  0.8241057283878569  0.4649349848069960  0.5117262928635979
  0.8332656333562534  0.5083071259255630  0.1789595630446147
  0.8442158841227529  0.1552840374350596  0.8389932214419766
  0.8340211720764422  0.1471457514222912  0.5118129316408567
  0.8247675028986385  0.1494642799997463  0.1724282340443008
  0.5104017765060710  0.8499986416947509  0.8281899327135376
  0.4836188155058466  0.8140651683412347  0.4935529186545365
  0.4936282663162989  0.8287248543075307  0.1633679940338094
  0.5023684185544993  0.4956362857222767  0.8227161433488155
  0.4982535219742134  0.4953628067781722  0.5022851762377996
  0.4991541199181961  0.5005150610171981  0.1744430511977832
  0.4982051014239322  0.1838896009837522  0.8246194434406345
  0.4906335200580680  0.1506685286395868  0.5167300466189857
  0.5157897368017328  0.1632712926260690  0.1403434150939917
  0.1544698416758643  0.8434407340228151  0.8467706306319455
  0.1593835153941488  0.8143069472093606  0.4970406152641242
  0.1529350397852648  0.8507760425363042  0.1726288797359339
  0.1757157953437548  0.5126501173054173  0.8288704114837088
  0.1469566605138299  0.5069543464380271  0.4808440221659122
  0.1768634150164501  0.5064192912603388  0.1599473513844250
  0.1756570105285306  0.1700403519535157  0.8325257581758334
  0.1679331129291420  0.1787305654385624  0.4994642743298255
  0.1843300784424702  0.1807040065030922  0.1630840394898846
  0.6633698656157617  0.8123306114380207  0.8054112216682491
  0.8261448975154146  0.6636516681129718  0.8372816602516050
  0.8418832767439931  0.8229715536726240  0.6626016911337981
  0.6437057781275189  0.8060252517532533  0.4831039177484303
  0.9895687890800802  0.4683694835879305  0.4841324495878045
  0.8681323161580077  0.7145460388826935  0.4250124151693243
  0.6693632447315772  0.8713380964168840  0.1709953136878003
  0.8508964625867887  0.6764367581430921  0.1713420914665903
  0.8145331961214125  0.8525646069763703  0.9981153368077439
  0.6744081721488678  0.4879696041284775  0.8110016090135811
  0.8480148730493233  0.3361473938188550  0.8293967218128513
  0.8135010610805541  0.5324798306057003  0.6682987980197160
  0.6729622357330735  0.5261461716193893  0.5079152392848669
  0.8192793007279801  0.3121640394009793  0.5007075002980800
  0.8524780656112718  0.4765540950310159  0.3336964597143236
  0.6455292005055382  0.4851981753914427  0.1779831359278256
  0.8076894614553427  0.3015604044716300  0.2067371493533939
  0.8475396553075177  0.4873160076705024  0.0140742316824882
  0.6784049727883761  0.1623203713175383  0.8510939865879817
  0.8435653645559328  0.9954213105310292  0.8073755737582489
  0.8368913447283061  0.1528317653058874  0.6871214367478897
  0.6535948253288274  0.1136204919505863  0.5113763369801282
  0.8367864065457572  0.0031421290252167  0.5087649065831527
  0.8018732464933984  0.1112776518844659  0.3564741383816586
  0.6636401462124812  0.1497893474774591  0.1542791915666097
  0.8403031311942677  0.9769468036288325  0.1863917531440760
  0.8452319059704576  0.1481066422630181  0.9975203836242045
  0.3364987831330131  0.8425953176925725  0.8219950172270704
  0.4845698987560170  0.6683434817848179  0.8568636433285015
  0.5300912483463426  0.8138548871220372  0.6618388245544108
  0.3289201370631155  0.8180554913151535  0.4776333672165030
  0.4746788677696218  0.6537064271626750  0.4979124685670538
  0.4818574977466661  0.8391451510579937  0.3347980272332188
  0.3328691851616066  0.8113055208584907  0.1841250964980989
  0.4912430683900350  0.6785470601359039  0.1551660953206822
  0.4734526861589494  0.8222406300816748  0.0109294907759588
  0.3425481333280624  0.5217296587350947  0.8022813755970685
  0.4645884461393013  0.3502822066880613  0.8399247097537390
  0.4766128153167609  0.4883185478766989  0.6740492646759274
  0.3071502212198585  0.5008624258344322  0.5008124789660391
  0.5205246674351586  0.3124684491982733  0.5129474137980286
  0.5082610294849889  0.4705628211565171  0.3363972414110233
  0.3474743575234265  0.5330424563475538  0.1440783864661040
  0.5124254802070339  0.3148981405900548  0.1278943944517339
  0.5104585775362085  0.4943354490156860  0.0123117259295600
  0.3299002888376186  0.1323280509010226  0.8323358006324231
  0.5341848091155932  0.9769476892471748  0.8699605115005238
  0.4812638196953934  0.1739838535508459  0.6779166334598765
  0.3156172791253488  0.1790670599232292  0.4978944930450430
  0.4564982466721821  0.9804949449554518  0.4784984594559736
  0.5095532427992636  0.1900355493669040  0.3581316515497681
  0.3558637036845484  0.1472949199151932  0.1655245404861184
  0.5200300976674044  0.9797159082503031  0.1371299868940021
  0.4921795364072192  0.1318390681198392  0.9802520534794963
  0.9960145922622365  0.8518364363932968  0.8529545340869104
  0.1520004340969374  0.6727595493296030  0.8209025589254102
  0.1843203619440860  0.8289349735850884  0.6483817981756155
  0.9926838696060691  0.8344761306719406  0.5207621505359564
  0.1396384368433329  0.5184313933585885  0.6599394515473554
  0.1639439539107587  0.8654571047990455  0.3330271751599990
  0.9912984095365329  0.8518038051528898  0.1687164608120806
  0.1747025467466306  0.6954625121729049  0.1975620623562721
  0.1753613253370773  0.8333364663822972  0.9954350491102157
  0.1920007680918529  0.3485587023017592  0.8664684019812532
  0.0086972801411893  0.1684076158562858  0.8714793621396092
  0.0006061031728247  0.5340139442443309  0.8213344572785866
  0.1423744307253229  0.6547167405675789  0.5195115157376841
  0.1668217985478051  0.1540766612973017  0.3458693091327162
  0.1620747324127516  0.5178708728580516  0.3216466049713105
  0.0137991996291455  0.5117739725490349  0.1850505322410762
  0.1778350446121620  0.3483087453808264  0.1684107757243736
  0.1637481867110227  0.5038278201704609  0.9881223728897566
  0.1260462802875301  0.1656359948135539  0.6672843955884088
  0.1316902601942623  0.0089224941566642  0.8386001890823368
  0.0216777325169462  0.1512893926436303  0.4853455948964780
  0.1812261835190571  0.3357426611757444  0.4712218952722987
  0.1595341413618084  0.9932067994093394  0.5208757930816413
  0.1941025276631687  0.0240778303450921  0.1643314253340098
  0.9984230794205651  0.1635231928466787  0.1335517345437443
  0.1977439068888660  0.1622466473860484  0.0036661438134584
