Cl O  Li
 1.0000000000000000
    11.7780000000000005    0.0000000000000000    0.0000000000000000
     0.0000000000000000   11.7780000000000005    0.0000000000000000
     0.0000000000000000    0.0000000000000000   11.7780000000000005
 Cl  O   Li 
  27  27  80
Direct
  0.6910656500672465  0.6750099332166395  0.6625808674343514
  0.6734191124976567  0.6645486247459133  0.3099078664049000
  0.6504674882665401  0.6671647514504411  0.9932416856400750
  0.6470238802683704  0.3075576725626518  0.6703174673311068
  0.6667050525996054  0.3340867495571800  0.3396203111825418
  0.6608719147363088  0.3467362134640212  0.9938397184032538
  0.6484422056345897  0.9951275447628475  0.6529559470474526
  0.7007092747135347  0.9774658719757877  0.3810557315033891
  0.6889731211693956  0.0017392652146728  0.9996088406493822
  0.3411765270383845  0.6486895585103214  0.6716760362322632
  0.3173524422231893  0.6894884874588908  0.3384602624889968
  0.3365483766736599  0.6699326174714016  0.9782643081316884
  0.3497926319805469  0.3261323786403895  0.6360861625528573
  0.3407915512753217  0.3438334095717506  0.3281454099887070
  0.3373220933429092  0.3435487566545042  0.0086968169216488
  0.3411068921332980  0.0271684863849714  0.6650883312986161
  0.3439703846925228  0.0221335955538372  0.3242708752871995
  0.3186201618644539  0.0151318172339062  0.9979328105855136
  0.9978927578934169  0.6563089126599077  0.6724430323234638
  0.9946606897995137  0.6412192716401122  0.3453829032190282
  0.0159353061887606  0.6786993281385186  0.0088307186194985
  0.9894934157896946  0.3137234587966714  0.6780912733195914
  0.9971578902960679  0.3021938415713107  0.3390142850812391
  0.9882231278552374  0.3347422488294221  0.9974463972045460
  0.9809231162933654  0.0008208220215561  0.6673456358148986
  0.9945245822794072  0.9876121002133641  0.3298505744843089
  0.0210286516259943  0.0051183435021339  0.9915388813173553
  0.8280214761501545  0.8248474880031805  0.8310484313685997
  0.8462160242286116  0.8229956043819775  0.5053419319453091
  0.8500469156582101  0.8219235507269241  0.1691304099299157
  0.8273290946694626  0.5056951715941113  0.8223572664764196
  0.8273088519644956  0.4811192322310311  0.4985252010476650
  0.8365444646494686  0.5009026302223494  0.1778526372528677
  0.8370393583005024  0.1718300928463226  0.8401673651021431
  0.8225104402082932  0.1564716489472700  0.5146165320800485
  0.8237576337467213  0.1503475829281874  0.1892578428135010
  0.4707559114313106  0.8428019576007285  0.8212551726471952
  0.4872336757015147  0.8419499826340767  0.4904461350682776
  0.5228210392855047  0.8398761579956154  0.1559651214151049
  0.5078616803148769  0.5019793801849551  0.8195195631233229
  0.5002564150879476  0.5294614027585107  0.4722333685553503
  0.4801920483516871  0.5074242224815743  0.1661580622247308
  0.5087839379531743  0.1625057766281840  0.8563134324087573
  0.4993375582240847  0.1497868903646584  0.4839317087266110
  0.4908848928818259  0.1693973751701485  0.1623567453870890
  0.1777629390105470  0.8394802916572802  0.8402563520331779
  0.1712503749977375  0.8349333752675882  0.5233072921181293
  0.1532170398216378  0.8400387474019105  0.1803508097155526
  0.1644712752886271  0.5023990924297415  0.8390650283604590
  0.1657612416626505  0.4917877450297996  0.4948421218497356
  0.1692294243046500  0.4911902208645832  0.1584332638249712
  0.1788197701514652  0.1882010970905305  0.8242358704681789
  0.1666132672360649  0.1855122383470563  0.5091027431303118
  0.1517749495197873  0.1692069824085813  0.1722364404587027
  0.6452697689121584  0.8822821148061064  0.8095707594569517
  0.7974678660103134  0.6683351441662243  0.8323768386393556
  0.8298119029190775  0.8270128906389126  0.6763696312621463
  0.6946030222748232  0.7933613369309184  0.4952279478064070
  0.8393886456681549  0.6452263555737436  0.4868615568727177
  0.8555489638390662  0.8438634850491992  0.3341041943217338
  0.6788992175863284  0.8051182999757638  0.1612562810956144
  0.8392338294605672  0.6713501331294220  0.2004535161350208
  0.8680636518162368  0.8506632525600807  0.9983692706638836
  0.6518597410287617  0.4984153280922318  0.8377150018807984
  0.8392457321710877  0.3294273849413962  0.8286396304483442
  0.8300860701151510  0.5168425053361698  0.6766423814688721
  0.6602086017799496  0.5078997236212497  0.4860614842016012
  0.8349079634091149  0.3437874181460655  0.5402401528814020
  0.8102842512623124  0.4959766894248550  0.3521362744501255
  0.6699495938371294  0.5093090207410536  0.1343213479878499
  0.8089347106075712  0.3417499898911349  0.2034728370370816
  0.8758571741993594  0.4747470311344628  0.0266172756119297
  0.6599871870730203  0.1746313795731837  0.8506409406520793
  0.8488853892472025  0.0253579611403543  0.8356725939204459
  0.8251437732120429  0.1901877566414039  0.6655262214924628
  0.6762043467594788  0.1502228575015332  0.5427610579017648
  0.8252875773881286  0.9943609206313508  0.5439569564258064
  0.8256874922674571  0.1656156836349723  0.3509926830757187
  0.6634673129109504  0.1700987848972558  0.1959938660464415
  0.8221076103794497  0.9908993320504943  0.1485052899020111
  0.8360969389280579  0.1730729139604777  0.0061875369071978
  0.3138594217821952  0.8373735118951326  0.8667076565552230
  0.4865412942208227  0.6800808927525177  0.8445352550091066
  0.4816571748517899  0.8417222926886077  0.6610689802857745
  0.3241339508141908  0.8591765245610108  0.4756795676197556
  0.4626126760771777  0.6938026127414619  0.4829526095727662
  0.4826139260593513  0.8341388895830427  0.3305748989534388
  0.1879685213894248  0.9868977905796041  0.1856625562270136
  0.4992098267557427  0.6738930622127892  0.1598758703157984
  0.5227994605620099  0.8232228085025275  0.9921992065769784
  0.3230708444347328  0.5307117541589137  0.8370049687613752
  0.5076945970280792  0.3153836844872465  0.8093446079570603
  0.5079219630902688  0.5112494054683722  0.6719970045622203
  0.3429789374886480  0.4876734962160726  0.4869402605096294
  0.5381814872123493  0.3243523161364096  0.5068810252893614
  0.4649551214105513  0.5440774049674880  0.3257856166571766
  0.3079399082968045  0.4652028386549725  0.1397902689820274
  0.4877835080538289  0.3454115713363894  0.1921209507613314
  0.4843345154961380  0.4953877886519543  0.9815618903169021
  0.3335654723978346  0.1663968192555921  0.8212403549871593
  0.4814990388405876  0.0090005416489328  0.8705394386638400
  0.4914183286431169  0.1531914096995367  0.6728408419614755
  0.3495156712911883  0.1481986679756510  0.5108569759427537
  0.5427684436724659  0.9933250299361366  0.4893154990250496
  0.4670881762037462  0.1484959219767392  0.3251331133052697
  0.3251660858550492  0.1468693194191143  0.1685410638175059
  0.5243539383618373  0.9931462767299252  0.1592845100542443
  0.4914447656158037  0.1583107999070485  0.0084259853438034
  0.0116570686917577  0.8613382025390289  0.8057805963497469
  0.1874051669101927  0.6636849899812003  0.8114566508224993
  0.2027185303052838  0.8524374851650300  0.6636257148939292
  0.9948219150372694  0.8379129394970938  0.5275880574229151
  0.1595577230265724  0.6665698183514603  0.5428805303464801
  0.1522733451587803  0.8174330709986801  0.3529738366108409
  0.0039524415149133  0.8409770372625417  0.1826942874268795
  0.1773291783285137  0.6783278340169639  0.1760063811036456
  0.1532749946859584  0.8160424781382657  0.0247052964603560
  0.0050572307868210  0.5073001347001265  0.8259003066413871
  0.1938112340521707  0.3548199757509609  0.8263079947194230
  0.1546204564356488  0.4756520824735383  0.6627276675307722
  0.9971290561443038  0.4571945006867398  0.4899777188753407
  0.1712344642316334  0.3295446509312702  0.4840208575992859
  0.1742773273995709  0.5165049379881398  0.3246405070798973
  0.0184732327936627  0.4863628620402780  0.1923713935071834
  0.1806318768574079  0.3310245343632941  0.1456272732019726
  0.1799856082586308  0.5373114832593113  0.0159146487946155
  0.0241093079241052  0.1831443074481292  0.8608974334339490
  0.1953378781326685  0.9945252294023992  0.8401348958033760
  0.1363691275697594  0.1778679046995406  0.6740373477666662
  0.0037595582680505  0.1371768491257405  0.5020853665410347
  0.1641355500267491  0.0299938214453333  0.4978155322969312
  0.1980004011169806  0.1598282031927289  0.3569628640516419
  0.9827991178323674  0.1572015300389133  0.1749422625889393
  0.1882513119778141  0.1716839607591657  0.0144688439564035
