Cl O  Li
 1.0000000000000000
    11.7780000000000005    0.0000000000000000    0.0000000000000000
     0.0000000000000000   11.7780000000000005    0.0000000000000000
     0.0000000000000000    0.0000000000000000   11.7780000000000005
 Cl  O   Li 
  27  27  80
Direct
  0.6833393286353000  0.6390754307615771  0.6785871389872749
  0.6853040046085791  0.6623650271948230  0.3380394777476585
  0.6480580752358210  0.6578691224216480  0.0110288268748386
  0.6792120435195743  0.3111832859975870  0.6738372287521736
  0.6733358291801079  0.3180245712963561  0.3144837504722111
  0.6643950717356846  0.3308632437665240  0.0111013109406493
  0.6456439707268642  0.9929196059916189  0.6507498974269580
  0.6907603042762097  0.9756283664818567  0.3288407877565452
  0.6906291315480234  0.9888112193387335  0.0065344270202609
  0.3322277688961847  0.6668492721699373  0.6820113139886761
  0.3305284950277282  0.6793491020016622  0.3527496287774374
  0.3147118979871570  0.6616706619290443  0.0291125562649537
  0.3670730551587890  0.3468043739280523  0.6491692255669033
  0.3422907616612748  0.3419951120819877  0.3346174484729838
  0.3304430910554723  0.3518242813620037  0.9640583678247155
  0.3340339849749820  0.0051066455461933  0.6463930600369061
  0.3349023362899523  0.9946506906383465  0.3242867054492948
  0.3085906254613599  0.9891433970665661  0.0078387157406329
  0.9976738720163628  0.6607009149048944  0.6660725724663338
  0.9976883009532049  0.6624644998470309  0.3608748481241496
  0.0060789524525048  0.6788807667795451  0.9634868251713241
  0.9898253736094725  0.3530173459073500  0.6549474247289192
  0.9618625045569612  0.3345308372951537  0.3307163553425596
  0.0065144287037841  0.3298897720846600  0.0170062560043091
  0.0296786810427052  0.0285111275537261  0.6520765233396765
  0.0011698545344196  0.0149936868219565  0.3291506225987704
  0.0175832840090235  0.0049067108795722  0.9894785329939525
  0.7955943583508913  0.8279059413303496  0.8204791891618007
  0.8406572106737139  0.8472754569759122  0.5124310085623904
  0.8495999519032240  0.8358314461498573  0.1753462871041873
  0.8259995489779144  0.4982280661049890  0.8362514951639040
  0.8390604661059152  0.5084514418215329  0.4884874917878899
  0.8456916523698317  0.5248639840963332  0.1776758783199069
  0.8121274661764751  0.1743693815192027  0.8426099717065048
  0.8248657955581217  0.1704632479552416  0.4970742448078501
  0.8463429816448503  0.1515156510093066  0.1693265317437999
  0.4933037698398406  0.8186195599413193  0.8457176317730415
  0.4992387285091213  0.8167095392714512  0.5145422417196308
  0.4975973690195754  0.8326050828613936  0.1685244752875966
  0.4880072660852199  0.4924714456664679  0.8222341507116215
  0.5219728246326624  0.5063727589338796  0.4984799387261700
  0.5145975570195683  0.5012673463141475  0.1834887127501214
  0.4689717550716130  0.1505870067975920  0.8410731455454086
  0.5033202246262117  0.1617950990186090  0.4620730289888849
  0.4887136150323391  0.1624973488179724  0.1583712101797060
  0.1867158979767513  0.8332712297964483  0.8476047377008870
  0.1657869551899968  0.8459927172475621  0.4981982412438488
  0.1577555101740443  0.8290689252161147  0.1805323871459180
  0.1516407760419516  0.4994515756786057  0.8416980783331502
  0.1657605789454247  0.4914721038076561  0.4785905499316442
  0.1562868513219245  0.4905518299544454  0.1971869107158940
  0.1478652686531427  0.1823722134716843  0.8227703394807878
  0.1719339865578643  0.1930252001157432  0.4902434249875490
  0.1770366056843110  0.1709353280777775  0.1617388675488394
  0.6433311202281524  0.8204952489835634  0.8249035967010324
  0.7979693944392618  0.6521603557376688  0.8326445690220606
  0.8170262007784940  0.8384650220660664  0.6720759109929931
  0.6515009949820219  0.8551284119408180  0.5262490433415677
  0.8614571568230661  0.6964566168233902  0.4936920531765505
  0.8312095354115063  0.6879856925612511  0.1482678028541492
  0.8835236485367949  0.8602167802029681  0.3389569581075837
  0.8082196524680019  0.5129839049198784  0.3291683754510266
  0.8530462319384494  0.9830560725792551  0.1814407785313130
  0.6641455196688512  0.4945821120279692  0.8509606543011394
  0.8246977001360756  0.3321949505981893  0.8834294672433206
  0.8228114039164286  0.4888556127344389  0.6551053178276619
  0.6789547587394436  0.4970456087370456  0.4980482428000433
  0.8440170138733201  0.3282762058290338  0.4998571714013061
  0.0026645987156074  0.5177368110753149  0.1808646306625417
  0.6726386704210437  0.5044085283001097  0.1786824670670969
  0.8314354439989381  0.1166619640241410  0.0152683527289303
  0.8117745953434901  0.5124149634540754  0.0157312477240873
  0.6464784155110148  0.1894370996895190  0.8766886464893029
  0.8101744500012572  0.0061587816447282  0.8462274240549309
  0.8722661135088959  0.1588986918211079  0.6554975404791030
  0.6575914176254493  0.1896336563547487  0.4728187879498078
  0.8301688984345618  0.0109774620418633  0.4944105072612400
  0.8417384950022321  0.1616113964710333  0.3314756592058724
  0.6672834628220187  0.1773527918626520  0.1863316184783947
  0.6923682228171500  0.8595269090606046  0.1695702033048403
  0.0187075091977099  0.1518887341832012  0.1786435605881503
  0.3425811230213218  0.8069736888613329  0.8362493899225876
  0.5259393017001300  0.6438688223269475  0.8459241073637053
  0.5083964877507913  0.8098304203570986  0.6763559475603999
  0.3292026788232083  0.8415392411839978  0.4789608699763108
  0.5090919056372283  0.6749671231720413  0.5262648326514421
  0.5284753887492182  0.8520920061957650  0.3366888844722590
  0.3240853432502506  0.8178157626124889  0.1455093598123509
  0.4992726147972361  0.6816421956203262  0.1941333796424389
  0.4815478999010636  0.8485174683818687  0.0147261873011223
  0.3358420836253412  0.5229659875932154  0.8701913859614484
  0.5043864483822345  0.3363432273989659  0.8221177146726510
  0.5120343852312342  0.4831687891426440  0.6608529909905877
  0.3404259227088930  0.5213702146752552  0.4748020872116565
  0.4861381761647951  0.3280334148256594  0.4746980397081260
  0.5316243439338878  0.5237059394305800  0.3395296039883958
  0.3366342413988156  0.4936939835902461  0.1917850031965099
  0.4641764202065657  0.3409878755682387  0.1809313303754080
  0.5239110636332545  0.5098471763290089  0.0354651244680421
  0.3056647448854268  0.1856305197485858  0.8586876996411503
  0.4942925450066598  0.9930375387255878  0.8512908533045614
  0.4998173864733086  0.1554273715598385  0.6935167816670109
  0.3274658344943330  0.1675952412728093  0.4870655227347766
  0.4701375729360736  0.0139203388989543  0.5099288887722370
  0.5219092625390660  0.1459807489182892  0.3244111171140222
  0.3249011849885364  0.1667843083904780  0.1383963566848096
  0.4986738355843116  0.9921513997662122  0.1802665599442911
  0.4984268340983040  0.1285582778499793  0.0045835711212135
  0.8969179025303999  0.8202411625508174  0.9193745194240780
  0.1448055129479102  0.6551563165581976  0.8400393101173329
  0.1484031780522313  0.8007341584531185  0.6771669917776085
  0.0060479861745815  0.8559621684729997  0.5146598518354891
  0.1601344227404160  0.6748476507273260  0.4810812933216063
  0.1768839554461547  0.8543825087481934  0.3478533637854245
  0.0082059711241122  0.8056614757545509  0.1704596981251486
  0.1644578697886246  0.6661794005771685  0.1974892355145764
  0.1723791641254990  0.8301175783042263  0.0151329834349705
  0.9947876918129618  0.5121484884858897  0.8463671796900234
  0.1383169567831916  0.3580776577804156  0.8345870589906959
  0.1813813581794974  0.5268688620816767  0.6695379211296379
  0.9879756559577012  0.5108863963166058  0.5213950451175260
  0.1750959375591228  0.3364358580168950  0.5562901891624640
  0.1606108955299297  0.4327177740971100  0.3472443417637868
  0.8290549932299014  0.3156958100315401  0.1781461770844056
  0.1540667630187240  0.3483112813712072  0.1328867680963534
  0.1527585276034680  0.5135026444773634  0.0016614288035617
  0.9831632855912551  0.1727267467392439  0.8525632287679686
  0.1331523949795458  0.9889866413548086  0.8176897444173452
  0.1641939352799121  0.1389201642752600  0.6618826969068501
  0.9838554671752354  0.1971171414685965  0.4674893290715006
  0.1353032937171690  0.9929032694961261  0.5028668972612126
  0.1828526587046153  0.1795100771736923  0.3237783301567532
  0.1560366717312371  0.1761075213811959  0.9923991213677058
  0.2046455297753049  0.0072167172782362  0.1759692765922523
