Cl O  Li
 1.0000000000000000
    11.7780000000000005    0.0000000000000000    0.0000000000000000
     0.0000000000000000   11.7780000000000005    0.0000000000000000
     0.0000000000000000    0.0000000000000000   11.7780000000000005
 Cl  O   Li 
  27  27  80
Direct
  0.7008047387244331  0.6630512463558763  0.6689212581999970
  0.6496919896535270  0.6541513386900762  0.3297483600255111
  0.6416400488987956  0.6593914867540689  0.0168053706436764
  0.6682055222768543  0.3200059996920192  0.6557626902632353
  0.6856729119074860  0.3550084503159873  0.3250379837932103
  0.6709590159772884  0.3203797609965303  0.0000781363054087
  0.6667795046827477  0.0188345860576780  0.6595776709267298
  0.6848261190733058  0.0347591614820505  0.3662065445344775
  0.6433829053110460  0.0030413949610172  0.0204709209242735
  0.3354771726264886  0.6617736887599978  0.6475833014380313
  0.3317086489708934  0.6811241357774815  0.3241416165745657
  0.3211130503954160  0.6874427746767072  0.9751642097953898
  0.3328295482730322  0.3487572601097119  0.6736161082775881
  0.3310784125944502  0.3567629665262989  0.3702881216223876
  0.3668439929529700  0.3171166976839616  0.9878575662124447
  0.3413576176912930  0.9842875924999607  0.6620446898664706
  0.3259810363285899  0.9834824667436169  0.3549659324079309
  0.3333732268430364  0.0004905324769106  0.0050922368505920
  0.0229292765646932  0.6393391846699688  0.6846044153294257
  0.9973534584366812  0.6739331982358173  0.3392826335795675
  0.0001888830621538  0.6912210350733914  0.9943570939232556
  0.9943377133768235  0.3124246208569510  0.6335736896990461
  0.0260249124644797  0.3477383233124921  0.3450683832705362
  0.9854036334947011  0.3299259575038124  0.9954994027325273
  0.0037951026070771  0.9839637408497149  0.6435236269568955
  0.9793306638584625  0.9996823239977732  0.3148564092624233
  0.0014635342484083  0.0159117709863784  0.0076511589360520
  0.8454513352200512  0.8440600971816222  0.8230486470231489
  0.8296981383314366  0.8247401356778188  0.5065433072009773
  0.8214956323371603  0.8316088903272282  0.1752886062295057
  0.8503672356358821  0.5131343806512746  0.8624213559505619
  0.8461245266164344  0.4871323832086778  0.4922950744558409
  0.8228677638506448  0.4957372736922884  0.1683709350835436
  0.8248275815747318  0.1672218459210115  0.8365905308211663
  0.8410108954584855  0.1630512110525989  0.4909304327431942
  0.8365017924416719  0.1642887083353477  0.1605628784382547
  0.5100040461666302  0.8492666828407797  0.8150526166195364
  0.4958076347462092  0.8189774424278075  0.4980991842802147
  0.4868008860835932  0.8441493270251168  0.1707584912849363
  0.5007405390342125  0.5014185507829224  0.8297998320421097
  0.5217933570540128  0.4962198597787022  0.4930274960069576
  0.4953298664235777  0.5012771352460228  0.1477642460385115
  0.5102110075822129  0.1569256774374063  0.8274793702863305
  0.4771972205369098  0.1915061182695744  0.5120113476374886
  0.4924456453344667  0.1838350642515023  0.1570945743400254
  0.1607213743358751  0.8299175718418236  0.8361918305041357
  0.1512127584103643  0.8287409038875008  0.5037450771225663
  0.1394432752524969  0.8304008056947962  0.1647897880264756
  0.1722518822402543  0.4834614901191385  0.8516582287487775
  0.1766493062537649  0.4990268347056591  0.5167543753529013
  0.1694358588241772  0.4871561886297189  0.1625616431266983
  0.1612744961277465  0.1509701926652890  0.8146804747314226
  0.1606211729462884  0.1465349350361951  0.4909623352462222
  0.1571621298855815  0.1652385972659251  0.1897377883068497
  0.6730611399172934  0.8148532746886467  0.7714754168996535
  0.8593022036666849  0.6942201942413051  0.8100675671235380
  0.8815792195120707  0.8415132410134918  0.6397508320905523
  0.6629386133568953  0.8064590297929229  0.5105837106269845
  0.8318530957314056  0.6506328326835288  0.4837261350162516
  0.7998435492795164  0.8434162172220312  0.3358538837268438
  0.6375181888280008  0.8260231992894483  0.1629455055409879
  0.8045074685039180  0.6482128577901314  0.1538429380344105
  0.8154385291861088  0.8467473567514042  0.9987615306107220
  0.7144755280676801  0.5242450750973429  0.8185215684843246
  0.8384999903343765  0.3480552835868656  0.8757617843487475
  0.8455408889468253  0.4648845978292644  0.6526179050757890
  0.6648318325816409  0.4762472734667621  0.4589708452871635
  0.8557449936082405  0.3219417488399005  0.4831888531410169
  0.8680404126052084  0.4574351609451713  0.3240436823679352
  0.6591922149778290  0.4944507688208145  0.1707448679444935
  0.8563943795835826  0.3192998734146547  0.1554937711098809
  0.8156142358652224  0.5231131840064071  0.0069287132429768
  0.5127298073612592  0.1612448836389243  0.9962345425727501
  0.6848920293206783  0.1517087578773633  0.7970876208154053
  0.8213438930207275  0.1789125039857372  0.6415254695496010
  0.6472059425711173  0.1532884682089321  0.5105929413004495
  0.8640278226558258  0.9944543620224023  0.5029432230934127
  0.8499735555096833  0.1458966218204701  0.3316743724323031
  0.4882753647133911  0.3513253306326480  0.1640386824586743
  0.8319173865623809  0.0021911985057719  0.1467410076664861
  0.7811760506422100  0.1558871355804257  0.9929053111612330
  0.3264588856220415  0.8453998403671594  0.8584511947107902
  0.4901351429895310  0.6654646626128643  0.8448068018548202
  0.4806728929797472  0.8351560600040089  0.6531157541617478
  0.3379606893707774  0.8580967126890335  0.5154461703017025
  0.5206059604660572  0.6526727710338753  0.5154268587611640
  0.4611171039630780  0.8197531428821438  0.3484677002302380
  0.3457968428905606  0.8784565014615827  0.1906162812170084
  0.4841067035087127  0.6890732031055707  0.1747626602690526
  0.5061420214567922  0.8538316557233021  0.0154891937622280
  0.3642072186893759  0.5336147349746077  0.8485738882783626
  0.5273952422557660  0.3272912682388299  0.8027748492612995
  0.5248871306249423  0.5034214044977693  0.6765200457613370
  0.3295815252902540  0.5088381094344843  0.5032110340801262
  0.4765468629117294  0.3600582764678800  0.5158038588984697
  0.4924132974919294  0.4852190832206049  0.3266544447556467
  0.3338332625561169  0.4892124830856788  0.1649042402803591
  0.6636718041308008  0.1609445021399187  0.1705025222806283
  0.5376889411293653  0.4863837270081774  0.9736028267028305
  0.3490821529358881  0.1888611254677637  0.8193089287367218
  0.4834819731480205  0.0025565818607648  0.8085365708614723
  0.4871091824802410  0.1966347087864938  0.6666716459116022
  0.3272559826155278  0.1717976587720440  0.4877037050860413
  0.4944687822396906  0.9840106014465446  0.4823175666338265
  0.5007407009758521  0.1826146720544506  0.3582478821642339
  0.9955675573356335  0.1522965149374332  0.8547464155760487
  0.5071323350691889  0.0135573584188620  0.1846912212304567
  0.3357279999837350  0.1703571878865908  0.1402238789237065
  0.9955042998314884  0.8199063396733343  0.8358193647327425
  0.1430150701798702  0.6686914712408373  0.8368057512603755
  0.1662041312188975  0.8303536806776330  0.6725749449903143
  0.9882764339027035  0.8066666389750645  0.4901472020026102
  0.1886442627809075  0.6890945794020159  0.5054777312115133
  0.1395281427930712  0.8190203569623375  0.3368259586620651
  0.9849397731755508  0.8240076736412921  0.1644720787720182
  0.1668389120826058  0.6517429021385102  0.1541968007599390
  0.1466071887830303  0.8095649085014226  0.0014999585198380
  0.0053831092847597  0.4940482223898404  0.8337029494430307
  0.2051120676402677  0.3175020580584187  0.8514443038426860
  0.1867718125714581  0.5173020702061145  0.6711867002836761
  0.0143476209108774  0.5006283160664199  0.4979600764116813
  0.1591818862590758  0.3339444583230453  0.5266167021836533
  0.1517128240725171  0.4836398688353079  0.3252570098609534
  0.9911786273509025  0.5109403143453094  0.1362196896968852
  0.1320001237282960  0.3301013200569416  0.1519796881343687
  0.1852882854525401  0.4916764251342645  0.0001421460316334
  0.8409670398810870  0.0037974587263663  0.8174493528876314
  0.1615752116313841  0.9814134155880205  0.8701377131423502
  0.1587941777308425  0.1462781462023360  0.6550418070539498
  0.9950926005349465  0.1699950863801408  0.4708973207434026
  0.1371130868769808  0.0080881046852217  0.4874669868941569
  0.1789939175565701  0.1804955644849781  0.3400843863951963
  0.9964224472518007  0.1552545915356163  0.1743292032275938
  0.1219135380905668  0.0046802547927919  0.2052607041837594
