Cl O  Li
 1.0000000000000000
    11.7780000000000005    0.0000000000000000    0.0000000000000000
     0.0000000000000000   11.7780000000000005    0.0000000000000000
     0.0000000000000000    0.0000000000000000   11.7780000000000005
 Cl  O   Li 
  27  27  80
Direct
  0.6605280622128904  0.6714761559832871  0.6949204155957729
  0.6822528975521857  0.6715840900861714  0.3416699104363174
  0.6648932395973884  0.6643021413429753  0.0003048981907993
  0.6815608399547732  0.3422245516391221  0.6489478561117326
  0.6872602140236477  0.3073112094024187  0.3285064235222487
  0.6819524958104751  0.3331511842344596  0.0246379414624001
  0.6527126372229936  0.0057253947030070  0.6759778185979647
  0.6680524375907715  0.9857319356319079  0.3272392099486083
  0.6499089416142414  0.0130945945652872  0.0276843344520162
  0.3131098042377128  0.6808578805127122  0.6531423874933587
  0.3266067694734082  0.6678847762388582  0.3407180984487682
  0.3321828047409186  0.6711740943397693  0.9874648681151565
  0.3167712237413275  0.3501302186077619  0.6668275896425424
  0.3276056457500058  0.3713815365924687  0.3377057005518060
  0.3404300066277621  0.2923422351469316  0.9809272702021482
  0.3276283175795689  0.0117789958660993  0.6616707200667841
  0.3442276595358049  0.0013804644515676  0.3005146693949186
  0.3446818248644450  0.9973376375942252  0.9963001866863753
  0.0009682591284024  0.6749815042316062  0.6732770773866749
  0.9884252324713010  0.6626426443897788  0.3100137611277424
  0.9753622834817890  0.6606082525405933  0.9982200326591668
  0.0071429646461519  0.3376210973744571  0.6581621329856705
  0.0024792894412330  0.3282385428941283  0.3224835710280013
  0.0111700635543196  0.3530102696996497  0.9907838253316466
  0.0249902200220113  0.0115177194775828  0.6656222985033962
  0.0327879604787814  0.9854471131820075  0.3357192029425725
  0.0062763282678431  0.0165016986405559  0.9948118977874061
  0.8146358965830440  0.8421785550313046  0.8521263149903091
  0.8421295384692506  0.8302725247070821  0.5214952107880516
  0.8414640393007551  0.8309172143748720  0.1731060317118359
  0.8178760249108853  0.4831752755472716  0.8394789968101944
  0.8291060298600289  0.5046677246335456  0.5159383858475549
  0.8149413185155864  0.5039777722774497  0.1509530327984306
  0.8418763427155234  0.1806841223154077  0.8369816947838231
  0.8234610681821060  0.1493045187207396  0.5092504795243210
  0.8380129819871575  0.1505379067343802  0.1739194645682306
  0.4966470498846594  0.8308284703562964  0.8456381231942800
  0.5114696896259401  0.8213228199870632  0.4884335699882065
  0.4957615934839920  0.8117411380179741  0.1688726748220830
  0.5058589381194112  0.4718796032632148  0.8291103594428074
  0.5095360659620802  0.4847065956926167  0.5090576880022151
  0.4900944458014250  0.5047542419545746  0.1723586508017485
  0.5355911802625107  0.1746495897803944  0.8226146373605304
  0.4780486193567004  0.1706285383803355  0.5174169535037559
  0.4991243926039332  0.1886053559241673  0.1759421966193552
  0.1685276200292997  0.8384185130690907  0.8451340798406012
  0.1617811515605962  0.8341665733761778  0.4959194032558303
  0.1760796266994608  0.8156800445212767  0.1443859956665548
  0.1611779391952840  0.5246527804517453  0.8264840709003861
  0.1461873052454822  0.5061778709094953  0.4974712495040121
  0.1595581584292330  0.4948686360131105  0.1562352654460497
  0.1519089058044104  0.1415190326914889  0.8323674916428206
  0.1649786386304243  0.1651108425885401  0.4976598710288948
  0.1721970151586714  0.1751357993109972  0.1573940084851243
  0.6694146906642320  0.8009765533414320  0.8654299826362746
  0.8274483142648699  0.6497563408348236  0.8282934448411582
  0.7971584260853387  0.8266152347152809  0.6720207746310115
  0.6680198063503647  0.8303339815593620  0.5226749961189395
  0.8581224089846748  0.6531838356398395  0.5530239929969740
  0.8538982422829769  0.7790107083567992  0.3668774626797787
  0.6665585259642054  0.8211024174153825  0.1695394087955817
  0.8423503458950311  0.6619482386385903  0.1367092028416245
  0.8176373229339140  0.8236346178651169  0.0220212631441620
  0.6577445283382855  0.4600747864638275  0.8275628451334885
  0.8329170834387598  0.3348813282279908  0.8462164977605977
  0.8377650493367216  0.4805360721590815  0.6723201237520640
  0.6502964679581299  0.5019063767635845  0.4987386047765873
  0.8354937368686021  0.3422543489008334  0.5200646183426223
  0.8343858941111668  0.5164845655996834  0.3461216456272546
  0.6561457594999902  0.5039155462023810  0.1531153889070651
  0.8541239889287692  0.2956079300111460  0.1783261799833211
  0.8216560666656065  0.4572737628921310  0.9961589220208862
  0.6785999799846572  0.2197441826646051  0.8579371858781421
  0.7929320731715044  0.0099975758357176  0.8218180464346683
  0.8690393807442085  0.1643543524612176  0.6703667432081564
  0.6392467040540125  0.1807937568055091  0.4776214149549918
  0.8588361667618118  0.9912951730817874  0.5294622131527416
  0.8046066079217241  0.1426382720918205  0.3366320274803553
  0.6775163475023626  0.1615898568506341  0.1637742155715070
  0.8462342732116431  0.9886871674974587  0.1785903877685506
  0.8567435568931413  0.1472127084389152  0.9985195668111944
  0.3256795523723939  0.8597819351539047  0.8391487978067725
  0.4879922004051901  0.6739720410203108  0.8341974321718393
  0.4978558227690600  0.8209554553773217  0.6774235930721192
  0.3171243779721822  0.8228504154746944  0.4881906980140122
  0.4948682829137974  0.6755045352425441  0.4743484124742843
  0.5152702574834980  0.8469721895091348  0.3446600008724059
  0.3367434254418734  0.8211915662880572  0.1824974120115302
  0.4864127026220234  0.6603034378892000  0.1635157364717832
  0.4968135258903081  0.8165977677936616  0.0120275333244546
  0.2983461314960012  0.4862254058462922  0.8429141028722779
  0.4802459244954605  0.3118208994576764  0.8323622285395292
  0.5514495987315436  0.4930453755767309  0.6807808052054894
  0.3326207556628801  0.5087386540586430  0.5340925294868977
  0.4864007594260930  0.3452308362391841  0.5531199029331079
  0.4998409843597658  0.4834763655409510  0.3432478697739066
  0.3143251762439327  0.5000901607885334  0.2120099600776226
  0.5015856626154632  0.3399212961825646  0.1646820705252204
  0.4713600247814977  0.4780594176917765  0.9870867736066135
  0.2948477062527810  0.1270903665956290  0.8366568398545123
  0.5383249170828969  0.9931400584203325  0.8558499200835825
  0.5434464833811926  0.1528315873914883  0.6731789812384047
  0.3152085476459885  0.1652593430721781  0.5289459836906727
  0.4838020819332467  0.0100297819793201  0.5039819916733747
  0.4568432118268588  0.1846698299525941  0.3158799148428402
  0.3537890178291073  0.1630103684289897  0.1256000265984289
  0.5264897767114689  0.0171744472277680  0.2118782003109923
  0.5244231584759759  0.1574647275829874  0.9957408858088128
  0.9722646283721820  0.8457316355779360  0.8528398298549866
  0.1431080456940139  0.6824038563764536  0.7959228495034774
  0.1919222558586196  0.8628420653491792  0.6589419224664099
  0.9919040779581418  0.8277583807501783  0.5580930092331756
  0.1654481985361918  0.6872081790025063  0.4754505063035087
  0.1554489500490429  0.8129962666967491  0.3135661939078147
  0.0126363805785085  0.7828082398086121  0.1534804660911454
  0.1867052249636993  0.6541422872346180  0.1537046135632452
  0.1659666344531021  0.7869201809539729  0.9940094206624902
  0.0242435121818641  0.4958340510983976  0.8522259090987468
  0.1394351890620929  0.1838645346635961  0.9884108120056911
  0.1633787766860609  0.4887732741496713  0.6622996609101094
  0.0016706979123942  0.4881884624031740  0.5275725566440703
  0.1699044276076316  0.3281838471053075  0.4949754049523983
  0.1430086843766833  0.4761900038880721  0.3220517738883498
  0.9834205779155420  0.4716872975660281  0.1429449276213051
  0.1508948474990875  0.3257262005379665  0.1585443406802852
  0.1698944884394928  0.4874640569632243  0.9869549822107566
  0.0171399193817943  0.1789431889601291  0.8272051970221314
  0.1392346850693945  0.9856382119079106  0.8291933545331722
  0.1746667668635827  0.1738588085108577  0.6821345563428639
  0.9887630402014523  0.1719026142309598  0.4868369468766376
  0.1350810641945067  0.0086050289216893  0.4934472426690281
  0.1905159546591508  0.1531256632878966  0.3392503403970195
  0.0168654194462581  0.1410365984253624  0.1875084733834111
  0.1897372177990695  0.0096105542942841  0.1236389740693389
