Cl O  Li
 1.0000000000000000
    11.7780000000000005    0.0000000000000000    0.0000000000000000
     0.0000000000000000   11.7780000000000005    0.0000000000000000
     0.0000000000000000    0.0000000000000000   11.7780000000000005
 Cl  O   Li 
  27  27  80
Direct
  0.6999635320802355  0.6776360009394694  0.6739580073521552
  0.6650271334025748  0.6814164070628801  0.3067485377015421
  0.6610188349066451  0.6415936218332305  0.9881499807295510
  0.6718171844150722  0.3596107578575541  0.6686713415521484
  0.6816993490966919  0.3224365483884942  0.3306626620684305
  0.6682821603612716  0.3258668366867955  0.0028796229538747
  0.6813209724554484  0.0018909871665138  0.6694879727559279
  0.6313793448377046  0.9905731340966357  0.3606735652881060
  0.6765705763954279  0.9780253897822538  0.9881670592466977
  0.3291252336810044  0.6457304615057007  0.6505144853903400
  0.3211891824122091  0.6686750412754888  0.3321352986120763
  0.3576998360124500  0.6697949081996744  0.0052397306799166
  0.3009489672978999  0.3344384076780304  0.6864429790384345
  0.3396469463833522  0.3139531546200955  0.3312052272896616
  0.3196256561232614  0.3140757241986708  0.0018372180613143
  0.3339102447665186  0.9703205430985774  0.6525342620065394
  0.3301575104207977  0.9823036070365517  0.3483628023207731
  0.3333391170885791  0.9895744222920160  0.0210586967495535
  0.9891457927608269  0.6538622799742321  0.6899465864141262
  0.0193606703319334  0.6330586091671661  0.3124211913998600
  0.9969360143178707  0.6821929981962349  0.9888962369043435
  0.9978307776184391  0.3551717350853362  0.6621718543267476
  0.0084812171608869  0.3331257694744441  0.3414836834064207
  0.9982723815579164  0.3357952357065598  0.9986861049726661
  0.0138960547080687  0.9878747929110535  0.6656514133689386
  0.9867510149744372  0.0267971105091335  0.3280276286774637
  0.0079229670062291  0.0105460639019756  0.0161696508121995
  0.8448864819840636  0.8609455566409467  0.8283652313287713
  0.8194546000841578  0.8601594919216674  0.4973674507687410
  0.8373631592268408  0.8429021001123638  0.1622290451504118
  0.8256508111037428  0.5145908908701465  0.8421513231195105
  0.8334071678805458  0.5220908130604275  0.4747467137930152
  0.8234266236527865  0.4896151985693775  0.1651415048129517
  0.8197409938740311  0.1831165160643728  0.8263276816176107
  0.8538400733034360  0.1843409972878279  0.5197611455655566
  0.8480506596828684  0.1625575896817105  0.1509470569349127
  0.5157818396779589  0.8547001963337019  0.8322908586176155
  0.4944767165834498  0.8187491523122742  0.5150516397695695
  0.4922764155243545  0.8237286148217017  0.1745577431543456
  0.4898552665540691  0.5249786778364326  0.8275579522546863
  0.5140836791582756  0.5002890959276675  0.4914421276270247
  0.4879987675961337  0.4904013847448866  0.1965350455099896
  0.5006206204533998  0.1452567266634900  0.8395837384214938
  0.5031761000138464  0.1753355239156248  0.5071482399838858
  0.4919250426515369  0.1473172316020829  0.1647178249979920
  0.1860917985869131  0.8535415848722097  0.8383654514657585
  0.1468511429453524  0.8191249378872821  0.4811854729035151
  0.1796236470688012  0.8294058838567520  0.1495380432129783
  0.1583649000113715  0.5120108366658700  0.8533018147235439
  0.1549100269478877  0.5079096646395518  0.4970593972845529
  0.1630321289180350  0.5127818003272440  0.1528953970452834
  0.1473951960053985  0.1648930107964605  0.8406059140515084
  0.1781310309753530  0.1577817789056038  0.4824430307068863
  0.1682664369616446  0.1551341950375573  0.1664993550980820
  0.6813243732298830  0.8633401066969056  0.8183948084534953
  0.8284016327671210  0.6694917129646784  0.8573359429110115
  0.8293228377847601  0.8263714214113760  0.6592215205632144
  0.6584167566393646  0.8421413792597030  0.5189422471788209
  0.7975004958684059  0.6925751576905400  0.4854442141452966
  0.8056174157060816  0.8623646512299548  0.3071248091014691
  0.6520304666201393  0.8135032148346610  0.1704525428297389
  0.8575155817297078  0.6400186179305666  0.1578754162290973
  0.8477908243219118  0.8382685449454127  0.0154663230887966
  0.6711839521182940  0.5025603274249670  0.7838215639029428
  0.8355678742087257  0.3385913200582444  0.8003468985298194
  0.8582861810223923  0.4984026782517907  0.6266371217756715
  0.8588134630013734  0.6590727117473332  0.4642532599068015
  0.6726738152038665  0.4860697292798140  0.5006290363638471
  0.8500201129345197  0.4540743932068115  0.3056872936509410
  0.6506881323683662  0.4906081842188298  0.1486550058155545
  0.8850459843681345  0.3255539047107103  0.1676807193599573
  0.8115798639687074  0.4717183801955755  0.9939561028053152
  0.6704408829043644  0.1486537055907680  0.8397463278277889
  0.8629943103144418  0.0203852147332940  0.8158405029699367
  0.8185650546570870  0.1659031723810772  0.6812159887326703
  0.6851288681722045  0.1863350656687191  0.5126668062119949
  0.8692659861381439  0.0116089064936845  0.5275446680524255
  0.8415982569892209  0.2284353981196182  0.3777566269222339
  0.6513901898620325  0.1708461980215639  0.1682158453871130
  0.8568357507260955  0.0085214669916560  0.1511030168553311
  0.8242033767277809  0.1850875887324215  0.9995384018457709
  0.3516580363463535  0.8670079228952898  0.8261903551071145
  0.5296589831556400  0.6714735142663595  0.8320937756420564
  0.5048504146270786  0.8247760533475150  0.6801136519909863
  0.3073938397052998  0.8401485254411100  0.5130841298175950
  0.4859035666612274  0.6593005636344420  0.5189698582283958
  0.5106725809442830  0.8114008884676062  0.3467903894843449
  0.1901045302352304  0.6708481361391084  0.1429445185016531
  0.4942398769353356  0.6390746196271346  0.1624290430754859
  0.4891126426796490  0.8606061269640599  0.9989178939077449
  0.1762224880229474  0.6896411800326201  0.8410481766696277
  0.3049017602968100  0.5072666348735695  0.8460065057950696
  0.5291565592183585  0.3294740867119184  0.4959407854080753
  0.3231323808755182  0.4714638889087301  0.5026453717202021
  0.5415098318661221  0.5057129667819408  0.3433535830350443
  0.4621486714116094  0.4970480769208078  0.6823380823544022
  0.3174166911864403  0.4929315204387146  0.1865578413285497
  0.4731498528238060  0.3280919350594753  0.1767189353074445
  0.5130598436264536  0.4517012194472979  0.9612779442364572
  0.3647068483367841  0.2163870008513628  0.8114365000773118
  0.5031934682547081  0.0029469546714021  0.7912791383544329
  0.5287681017100413  0.1517119734571854  0.6678667750005292
  0.3246240455618329  0.1830156466655222  0.4984295045275407
  0.4830329891552642  0.0023285640728718  0.4986155349861876
  0.5126250708091720  0.1502967958315886  0.3470348808749365
  0.2064322353335139  0.1595324692446766  0.3135813817923399
  0.4928638183370875  0.9666641640284994  0.1890072086295591
  0.4918370678557503  0.1630952764110444  0.9923241036690631
  0.0215895629466255  0.8507345694598429  0.8582982001343236
  0.1668269174833249  0.8947268256023695  0.0033075459029509
  0.1226377403068790  0.8247950814901840  0.6659720983010261
  0.9810052155268901  0.8176718355539294  0.5320714631933803
  0.1746494071772553  0.6650339454476610  0.4694494408156057
  0.1809204352343984  0.0026002003716195  0.1801613085006111
  0.9973558681034457  0.8466806034215077  0.2073469373880396
  0.1626962619572222  0.8043261440524525  0.3239656060425515
  0.3210277873255070  0.8345940891397994  0.1587086059655399
  0.9678631365384931  0.5097476212797373  0.8234554846952502
  0.1578470410115526  0.3454340223463612  0.8866514282442499
  0.1480453613248818  0.4920608412126730  0.6537586217737645
  0.9798920932189659  0.4941392811878668  0.4618207750217345
  0.1850925174562161  0.3424842148931570  0.4887271355514380
  0.1654294623459267  0.4963911606592180  0.3212702291480780
  0.9985018046268522  0.4973990044541159  0.1558167432553039
  0.1561434858109956  0.1586820833303645  0.0036960223154239
  0.1826341219087914  0.5508174785915854  0.9957737677152327
  0.9775271278763163  0.1700758011559291  0.8482544176962473
  0.1925074202856356  0.0202194775863765  0.8309998598656388
  0.1652142520280698  0.1654934499111922  0.6756883132873263
  0.0258848017854626  0.1758905991285255  0.5196382318609969
  0.1839590271915879  0.0009417208572603  0.4504774918955952
  0.0083940008339520  0.1392153824582552  0.1773278156301475
  0.1490212520099893  0.3060690461322456  0.1595767649748130
  0.3265782965420540  0.1369836242356412  0.1584869179820936
