Cl O  Li
 1.0000000000000000
    11.7780000000000005    0.0000000000000000    0.0000000000000000
     0.0000000000000000   11.7780000000000005    0.0000000000000000
     0.0000000000000000    0.0000000000000000   11.7780000000000005
 Cl  O   Li 
  27  27  80
Direct
  0.6591805765851400  0.6454025228849513  0.6722742572252156
  0.6879744883821981  0.6590655795149011  0.3357605419887221
  0.6627166127741890  0.6689837357259522  0.0195265113457163
  0.6566038826698879  0.3476011995398466  0.6441951558259529
  0.6655467048702182  0.3579784602995497  0.3242831711848813
  0.6586783550749081  0.3341202260410752  0.9858632105429962
  0.6759107269008728  0.0099718854269930  0.6716396079390896
  0.6747589169882494  0.0014126822540545  0.3101592286482425
  0.6443486656849844  0.9788940303465005  0.9965448099342338
  0.3428702549826206  0.6691320742679504  0.6616860674797561
  0.3157047068585194  0.6652524788902012  0.3518409014750136
  0.2975230736258314  0.6891269275553544  0.0215403277504719
  0.3311285144519105  0.3206990292500713  0.6770984177021360
  0.3288198946785368  0.3268515767550424  0.3220233363304781
  0.3446252975032612  0.3311053990195169  0.9991228245278387
  0.3356367875178205  0.0132823653781934  0.6766638877973140
  0.3330461261361413  0.0146610707101159  0.3367786488350384
  0.3427959237699817  0.9992362914668865  0.0212747358702902
  0.9996144832382298  0.6726320379567482  0.6844224307862536
  0.9881223463299924  0.6796322892176233  0.3348393774564929
  0.9717221672872506  0.6740410921640926  0.9901952771880136
  0.0049331543362507  0.3110560726130469  0.6607944977821888
  0.9920962562656902  0.3127637067186547  0.3315500998409919
  0.0364516450274510  0.3198940983297627  0.9944389316050416
  0.0128864100065144  0.9897511785870114  0.6574940057081360
  0.9909603995023343  0.9809613090002430  0.3372774898135407
  0.9932076256818813  0.0129034206760417  0.9938915299587849
  0.8261515973411767  0.8278572291556714  0.8254710079302138
  0.8325618952084929  0.8396801834187091  0.5000720761661916
  0.8345314294309639  0.8445453151304827  0.1495594373389356
  0.8162349390902930  0.4980041735615263  0.8305226154401434
  0.8492441512842736  0.5134149043675087  0.5204990707192316
  0.8578673816585846  0.4985189050634277  0.1491306462409717
  0.8281289857331749  0.1795886308851418  0.8459763012660660
  0.8338520842522709  0.1645715295985956  0.4792506322641645
  0.8236591535639973  0.1546986563185557  0.1597418013352163
  0.4961631990216219  0.8356924515110262  0.8426232996153287
  0.5212937075299786  0.8512139099131782  0.5099755361734368
  0.5211480410250361  0.8392870700882498  0.1858141421775735
  0.4691638030198900  0.4902264809736880  0.8267735855094316
  0.5068948285744778  0.4981665605407718  0.4770157566649856
  0.5151121117433799  0.5067288198877220  0.1588383188057757
  0.5066137383733056  0.1515861076387692  0.8530146088122789
  0.5151554311320092  0.1982493684589893  0.4828729428617830
  0.5037987878205918  0.1639398762328047  0.1789626545555011
  0.1556685433049618  0.8301219829873816  0.8298282906597746
  0.1620010686997947  0.8227735572010738  0.5040416301248144
  0.1408337073339385  0.8339990277843050  0.1649239338067734
  0.1707427087768101  0.4974670941133414  0.8509374643702030
  0.1728133350678865  0.4815217939545898  0.5129957882399261
  0.1767310474590887  0.5002461341074437  0.1682930992574268
  0.1631291946476067  0.1713585745694055  0.8248249417584862
  0.1844095305498837  0.1599860609772938  0.5024492579812887
  0.1682316012256512  0.1601428609699684  0.1524118773812483
  0.6588375841921787  0.8236018886883243  0.8464032603992304
  0.8488134674933953  0.6753355726613236  0.8234389642348042
  0.8205104412917874  0.8255199254693594  0.6851730302864307
  0.6681568802194856  0.8678049118749678  0.5114134969634739
  0.8651626096162388  0.6772875767012934  0.4721634993135711
  0.8199759529098380  0.8397399398837719  0.3317811905608954
  0.6681789042824897  0.8492684240242079  0.2027242703831681
  0.8674371609171531  0.6694047435038563  0.1517592930585216
  0.7967795943756701  0.8202068631820757  0.0035126621132243
  0.6536401887210764  0.5073499470469300  0.8512581088168808
  0.8314120285955463  0.3358042976381014  0.8419964235279102
  0.8039945802508355  0.5214715009443828  0.6795117934737142
  0.6885603932347636  0.5058495982401844  0.4871824528076218
  0.8220516398771565  0.3470429867076760  0.4864012058521247
  0.8432026755014567  0.5143391862763029  0.3146159637873064
  0.6797906056764915  0.5424925784027946  0.1898234730514564
  0.8195247835015331  0.3079786956331405  0.1573736174024770
  0.8200306082132490  0.5179802821041308  0.9870680614033094
  0.6755300021058531  0.1771858420482615  0.8499311590208827
  0.8477084587146557  0.0173715423366496  0.8464324098943827
  0.8068436195187138  0.1902263342869507  0.6766253861724666
  0.6756140903022861  0.1750913091226190  0.4925532068040617
  0.8316579369754856  0.0093147952046575  0.4877076295452861
  0.8380203810882596  0.1216463372843479  0.3140539048411922
  0.6721338430081262  0.1762521270389527  0.1876620784713079
  0.8411971902349639  0.9992641859143311  0.1322155585726602
  0.8273924751556551  0.1899092120709373  0.0121612803187787
  0.3252723403903615  0.8483158023284599  0.8502716413184278
  0.4617211271992558  0.6764068166081784  0.8323557948019568
  0.5166644843018907  0.8590837877794363  0.6839104522922276
  0.3506062475982269  0.8342243695759979  0.5462511922117155
  0.5195008516364596  0.6616961595107752  0.4930814604328810
  0.4963728324742603  0.8502629886046473  0.3306789955181461
  0.1655241900430747  0.0178767962142069  0.1552471718524540
  0.4545432259595902  0.7066856117853874  0.1671520280997883
  0.4967263510738044  0.8573123081823626  0.0314691139119688
  0.3205390089306283  0.4929001374457319  0.8522475722356687
  0.4904422462292526  0.3491438555999732  0.8201267718772806
  0.4702640750056675  0.5076854496390533  0.6370233678831873
  0.3343519627908588  0.4816718733692154  0.4627726250815009
  0.4742994177554329  0.3400614801916005  0.4959921589800887
  0.5244629459050253  0.5134135683489809  0.3133440943915236
  0.3386205015018444  0.4971977851664601  0.1927107305463124
  0.5043857452938156  0.3340887283921465  0.1434308774393504
  0.4907685181479111  0.5007275056315593  0.0059046309080075
  0.3419185644513011  0.1660279618569152  0.8346634631681972
  0.5066936160871055  0.0055463015968274  0.8597742957673260
  0.5562405109579925  0.1748584977727933  0.6899316043992579
  0.3520732364271869  0.1888447696729515  0.5075974231939112
  0.4918959963291642  0.0248862885128117  0.4662775279903106
  0.5096735041998905  0.1770084957100455  0.3394655642788358
  0.3393143809427039  0.1487431816677910  0.1875889820636719
  0.4788719614096132  0.9908500728036821  0.1494130117325567
  0.5523058149373229  0.1813368111287987  0.9957186422023689
  0.9956056963870428  0.8491633239000191  0.8679270047073834
  0.1598185204929555  0.6701275295274087  0.8191233005066556
  0.1579508374405259  0.8284740648614264  0.6638667331150333
  0.0005860103552477  0.8396886853547955  0.5206536844997696
  0.1700249631867945  0.6567727288086966  0.5003257172594284
  0.1638138839004112  0.8452442552475842  0.3281522403560477
  0.9878245103511364  0.8486787945139284  0.1689827884583581
  0.1655905759940141  0.6678145575724671  0.1872787423673474
  0.1540495722471095  0.8108042076957146  0.9963776089867132
  0.0162871186521826  0.4835145263169532  0.8599623909818795
  0.1565762160743305  0.3161344409789431  0.8484378951608755
  0.1852049676415628  0.4787854660679680  0.6716954778047987
  0.0027220566406859  0.5117549215893933  0.5554352264844328
  0.1859528343765693  0.3308356042477165  0.5121572949147821
  0.1722222075974396  0.5063451396577769  0.3220564938812142
  0.0214768079785378  0.4619287583607812  0.1440523689672479
  0.2008307974305248  0.3175561671195967  0.1521058785316144
  0.1822503221818716  0.4991124616584706  0.0192999056501320
  0.9989099479109588  0.1837019687771453  0.8189726947817010
  0.1555518339894744  0.0025957146413360  0.8088565244306624
  0.1603134445080467  0.1782769238459839  0.6405031698378379
  0.0282826938469957  0.1523317375548769  0.4860412905578110
  0.1767230111052168  0.0000436560980288  0.4864040803162299
  0.1725887220135725  0.1390443754077626  0.3398636978001272
  0.0121211421362506  0.1706587032878757  0.1742043435978385
  0.1905356410821679  0.1614209954829385  0.9788636386779067
