Cl O  Li
 1.0000000000000000
    11.7780000000000005    0.0000000000000000    0.0000000000000000
     0.0000000000000000   11.7780000000000005    0.0000000000000000
     0.0000000000000000    0.0000000000000000   11.7780000000000005
 Cl  O   Li 
  27  27  80
Direct
  0.6572590760611520  0.6728572194087631  0.6689228978576350
  0.6681985172231991  0.6662856681536797  0.3131891998371703
  0.7023239121690611  0.6597210803891049  0.0189223944782421
  0.6531919522645883  0.3182564853425974  0.6590321907545192
  0.6680266971434391  0.3404921250990306  0.3211177208197180
  0.6634046803183193  0.3398387310681052  0.0132096374510463
  0.6517906307705412  0.0091570352854587  0.6656263733537560
  0.6720662908612477  0.9742940164133035  0.3361458240164138
  0.6776949774043772  0.0031460412208148  0.0161350106941862
  0.3412713422049871  0.6704879727340132  0.6454352063135818
  0.3288635761954521  0.6477790180500412  0.3255760146470644
  0.3402002601997721  0.6709042842043650  0.0068277198560939
  0.3262514170610979  0.3226893543325053  0.6750747368679324
  0.3127316585396097  0.3455687525922996  0.3447126177292765
  0.3291083509839133  0.3109854271746737  0.0008982143817561
  0.3087083804420045  0.0225551579231383  0.6596849775042958
  0.3146095742794001  0.0209847997212643  0.3214444785632956
  0.3412121120502535  0.9869565406603557  0.9958860459869475
  0.9916068151506570  0.6573223603359228  0.7006539451745881
  0.9992183070652634  0.6668852570748027  0.3134892372101915
  0.0160609181006323  0.6635664655954600  0.0004085191522456
  0.9819814032455781  0.3340938918838748  0.6627202901432805
  0.0089671442776406  0.3679263748888640  0.3228657796071450
  0.0320031337772145  0.3495079424934718  0.0079298004010432
  0.9913320318172513  0.9954438213444001  0.6761718509917349
  0.0209735695623160  0.9868819058071422  0.3076183871875414
  0.0010521204349220  0.0001606483574477  0.0258196736292880
  0.8437948331094531  0.8345781731753734  0.8376387588110089
  0.8703942332610367  0.8249554390006109  0.5164802688834785
  0.8325896052311890  0.8235583684746072  0.1737984192591892
  0.8425141986224196  0.4958762215319449  0.8121397521014325
  0.8345275608339118  0.5099637271996432  0.4948602502705023
  0.8422155782387463  0.4868194733880604  0.1574683963711870
  0.8117574326955292  0.1515470509414971  0.8504245370930980
  0.8231618487906689  0.2025253176019546  0.4792215056357714
  0.8316921246637712  0.1533632365524907  0.1796049379654541
  0.5299650525735925  0.8288636575631835  0.8509069612378720
  0.4687731773017380  0.8416698404918795  0.4986974979094606
  0.5107283695580235  0.8381536016682881  0.1765293018581750
  0.5027661849571157  0.4936717909610365  0.8165570342085158
  0.5055096382758859  0.5108796691139911  0.4948466876581744
  0.4996558528535230  0.5048663711764880  0.1613044294478473
  0.4925683555342402  0.1433900707906917  0.8425177365329801
  0.4771377463919801  0.1619880154937314  0.4862762097730077
  0.4940918215100581  0.1741758951205621  0.1747900081619987
  0.1801676694836412  0.8283273878231974  0.8238792254491862
  0.1531695386509697  0.8260963178525521  0.5105580631183270
  0.1890655123935346  0.8175156781294919  0.1644521498275139
  0.1676636898973980  0.5074037942441040  0.8337783940029783
  0.1472511385143521  0.5039894571973167  0.5102195241204587
  0.1899786203291869  0.5094318703693398  0.1500002046209419
  0.1492712794992408  0.1682678390061827  0.8404199445318379
  0.1441036306830876  0.1798144803464206  0.5010525342053237
  0.1653764565418219  0.1735588772304624  0.1560585223342915
  0.6815477714407501  0.8130287611173221  0.8154585840661855
  0.8422489382165319  0.6410111125567777  0.8448301012067726
  0.8809746902931990  0.8220910152769578  0.6801216885557196
  0.5063369171424781  0.6734328409672052  0.4938282771712836
  0.8620647650212073  0.6505717421127012  0.5182583071169616
  0.7851118791766211  0.8350751720677235  0.3727523673100835
  0.6670809174819701  0.8472045199131423  0.1694998403740326
  0.8227981278678215  0.6479463847347086  0.1609225406972919
  0.8186593853810846  0.8487597264503484  0.9885378817743430
  0.6551461425166943  0.5071221372471928  0.8076278960767433
  0.8126435773481657  0.3128530393776359  0.8158010906342273
  0.8034396242537610  0.4755245298413824  0.6467319135083592
  0.7787051440253790  0.3529429675847354  0.4691930671680600
  0.9857744127402565  0.1541199291068628  0.4691513671958279
  0.8517617140179135  0.5055249878252950  0.3321577479827463
  0.6477968665367780  0.4975896855365834  0.1561242503973194
  0.8281260078151413  0.3371064517224766  0.2052691251475613
  0.8046128914336493  0.4764165043930493  0.9967069955290225
  0.6408560478576861  0.1811114709390676  0.8576919920595378
  0.8295907699465548  0.9955326479152568  0.8308904887415633
  0.7943694349537782  0.1610100094459548  0.6305757248492613
  0.6572219914256524  0.1793650113253329  0.4729655786365336
  0.7867523479871482  0.9439730000142095  0.5162229031325278
  0.7985731160380495  0.1395981364468021  0.3321736789915553
  0.6476881227256953  0.1982290868705741  0.1338530239655542
  0.8312576352443592  0.9882746570459738  0.1585444580818239
  0.8312814406654004  0.1820249230007043  0.0037773017311120
  0.3547585706995934  0.8382786206141646  0.8597182058559165
  0.4823942505615861  0.6570847919504299  0.8598803094372925
  0.4854485508578300  0.8185674081087584  0.6615996944817162
  0.3082574337034541  0.8261103258043895  0.4867853542883381
  0.5069799064230505  0.5194652480570632  0.6455166224729593
  0.4902972454931704  0.8447800916246521  0.3307686125970895
  0.3445153571321818  0.7892706270349095  0.1496804913386927
  0.4824831160363914  0.6714105137701802  0.1890937464041547
  0.5254663138217220  0.8530262408908372  0.0378391693755268
  0.3344556639280013  0.4821574164925160  0.8301779455267244
  0.4777984682821037  0.3424682584433210  0.7626767834853390
  0.6610101302623607  0.5229439973910556  0.4762024681315801
  0.3154684520084458  0.5328180245052785  0.5010516435263052
  0.4684071082251143  0.3408130124581678  0.4894809943379764
  0.4764534215078650  0.5146166343925426  0.3279658683954708
  0.3388416103277956  0.5040054489342406  0.1429094077407494
  0.4718121741130267  0.3243435881824102  0.1541864263721791
  0.5076441505438383  0.4975755561285163  0.9928002338086230
  0.3462121411479274  0.1428797117130632  0.8305912205913309
  0.5339876829046388  0.9810776036770712  0.8368975519259365
  0.4912195436168778  0.1353330288743084  0.6492153290391233
  0.3051688625077011  0.1566562489470581  0.4927086531595577
  0.4759869486146050  0.0074309879093452  0.4646859884217429
  0.4733590811411964  0.2179177894880568  0.3378173248936555
  0.3345656627867921  0.1744569448363243  0.1733333835979819
  0.5053138913188550  0.0114787685361439  0.1728160610298447
  0.4920981174978564  0.1535069192723466  0.0153292308454380
  0.0082716473181373  0.8169970600282370  0.8398810027547959
  0.1744768175935579  0.6650815510914215  0.8287177177612233
  0.1939943276551344  0.8203062564654254  0.6692396152195491
  0.0111116286081274  0.8279844764010559  0.5367957261321500
  0.1094481602649591  0.6723598966331333  0.5242053304384027
  0.1615467695531688  0.7978254370664317  0.3440882922226838
  0.9922484968790055  0.8137195231816169  0.1618131893517834
  0.1574005777510039  0.6649075852849349  0.1654739307247817
  0.1763812917622651  0.8366446294692266  0.9840294467667932
  0.0066852252647029  0.5041196987610744  0.8296569792716930
  0.1499304325797294  0.3310162922342139  0.8543223104199078
  0.1609377070461211  0.4677590233619343  0.6501119189275225
  0.0047692867665546  0.4777490006902083  0.5024950698466835
  0.1626626284217708  0.3343149827075246  0.4897294532987416
  0.1677221508293427  0.5228452939616363  0.3282064934294137
  0.0112123322698312  0.5113409193893694  0.1456310495449177
  0.1726972611572021  0.3386997550304308  0.1634441643336811
  0.1880961499807789  0.5322386782891223  0.9924295500278515
  0.9813464971301329  0.1709654628409077  0.8378335746036115
  0.1489837824819467  0.9923500911055110  0.8279557823462647
  0.1559766653982138  0.1732503986494700  0.6724746019003286
  0.1835446587397643  0.1719601691202821  0.3142403022925828
  0.1388518633064439  0.0112878380777259  0.5058111892889707
  0.0166831801164876  0.1742669872929137  0.1726823782062425
  0.1827063475989651  0.1492641495247840  0.0063415976221562
  0.1755035275894851  0.9719613508367670  0.1797867376987629
