Cl O  Li
 1.0000000000000000
    11.7780000000000005    0.0000000000000000    0.0000000000000000
     0.0000000000000000   11.7780000000000005    0.0000000000000000
     0.0000000000000000    0.0000000000000000   11.7780000000000005
 Cl  O   Li 
  27  27  80
Direct
  0.6894858742426785  0.6723830851261114  0.6797187295128830
  0.6864203190024728  0.6654615779875581  0.3327655881697326
  0.6743913344882807  0.6775965937903675  0.0189623913661698
  0.6509838445413069  0.3469852059827478  0.6475612493730948
  0.6817858731565034  0.3444467707798836  0.3278027449210832
  0.6444607138365045  0.3279371849774714  0.0054459463224508
  0.6553176052476961  0.9768530920586583  0.6626086236249191
  0.6655940978220735  0.0127175061590104  0.3319990576607465
  0.6409592521875392  0.0219519042816855  0.9989164384539264
  0.3281519306795626  0.6550384067729900  0.6553231121656489
  0.3727974998821950  0.6570407746629177  0.3336557206352473
  0.3344336266422233  0.6643036142926249  0.9844680010076474
  0.3162410421061481  0.3198438478910822  0.6662389503337045
  0.3135515355961149  0.3247461249664703  0.3498265650127414
  0.3293014126811148  0.3579277240359500  0.9997555344640973
  0.3374886151904360  0.9605951939284535  0.6944539612541158
  0.3382672710796975  0.0159186634842828  0.3154830144354498
  0.3357615885734698  0.0062031607881637  0.0037987442821839
  0.0027182717644391  0.6700186157297338  0.6892698854828820
  0.0016335670513658  0.6621327866119616  0.3538978588065284
  0.0288390187657794  0.6997195626509544  0.9949581417323843
  0.9834578132174479  0.3310852089977125  0.6657224779591761
  0.0052471044922808  0.3019523533486865  0.3390117784278812
  0.9680223293787981  0.3434013970099766  0.0005266274198186
  0.0156762163081724  0.9949349730367759  0.6564423718086853
  0.0082800518977071  0.9840208921885454  0.3266945985230736
  0.9872169100983738  0.0229894226168961  0.0012773708329764
  0.8233600318922274  0.8527536834642472  0.8182598023071683
  0.8362637846588641  0.8356077075030820  0.5024821472431511
  0.8522999745629177  0.8368026748626951  0.1547661190779088
  0.8477570257433992  0.5110326538312177  0.8431036741131922
  0.8349412882579588  0.4827961046727214  0.4996786540614487
  0.8594088886640555  0.5038843879116237  0.1604065666326242
  0.8356081639303923  0.1587219567352660  0.8218013040265584
  0.8224468429857550  0.1533196848471925  0.5215072535064049
  0.8160290958030110  0.1521870245334679  0.1828127916638144
  0.4911818587201602  0.8355564529741053  0.8306758678257399
  0.4934632925407632  0.8276754011347055  0.4971219599387042
  0.5089742247363325  0.8385134263448679  0.1840886691151808
  0.5168843046146552  0.5138001149980788  0.8380040509070806
  0.4975333717722522  0.5205993561986313  0.5070791035995218
  0.5115741572768866  0.4893011788846932  0.1519993157989590
  0.5034784517940164  0.1705332410788903  0.8085862184575288
  0.4834537607594911  0.1690577705565491  0.4974395679796366
  0.4910436010452355  0.1908616840227981  0.1691378728087539
  0.1640932076444262  0.8359896468603996  0.8166365802812731
  0.1672742778805260  0.8186153331872063  0.4983776554132183
  0.1927119998008148  0.8126878643187634  0.1799669507433210
  0.1676554277723500  0.4948159799696783  0.8309275251338899
  0.1622680140297223  0.4894497603391510  0.4962919685496464
  0.1634454815708915  0.5018762710934855  0.1655720798434034
  0.1574492887190856  0.1548044872565234  0.8254949499164808
  0.1585250670318529  0.1387659188346363  0.4993752159139931
  0.1443903958615815  0.1917845894276546  0.1618206511521529
  0.6631048523922790  0.8346650452181776  0.8380183827421973
  0.8043718888082432  0.6691772074550747  0.8484605416140245
  0.8143935662124956  0.8451240460205376  0.6651396499977655
  0.6754891368640522  0.8580976766047206  0.4778091643524590
  0.8271816116775410  0.6432778810120705  0.5006065796571368
  0.8377214213581294  0.8150490543969366  0.3193429946320860
  0.6928811426613867  0.8456922182635519  0.1611601924171939
  0.8513527779121007  0.6582337582374440  0.1308285232946110
  0.8385231134456431  0.8274800185463637  0.9989590960800641
  0.6752885721432390  0.4747716130259251  0.8218830845546253
  0.8524721994967771  0.3156785469754284  0.8191224654220428
  0.8318202680061436  0.5349846320563946  0.6742342519999384
  0.6496275023376967  0.4890377808076622  0.4699550757960750
  0.8348216943570136  0.3265476649804201  0.5047634596075243
  0.8354271941479873  0.4913830196343213  0.3330572450628975
  0.6691238182871728  0.5078910265057460  0.1695561174574300
  0.8335045420302195  0.3398486605893298  0.1661252724847422
  0.8323945940314679  0.4903661880784179  0.9952110578837494
  0.6784918182626303  0.1535489840877064  0.8494525151282285
  0.8093371004533737  0.0047675370816734  0.8471203126035680
  0.8387103989519982  0.1392234545736534  0.6677307162335442
  0.6634781278718708  0.1478863201642897  0.4989359897016186
  0.8585834721263205  0.9952479480286092  0.4978342197556737
  0.8273939981380551  0.1706289991947367  0.3350678112483367
  0.6438544448227423  0.1947423117785007  0.1808183589142338
  0.8642454376764157  0.9948672700448447  0.1811227484688229
  0.8563946689236464  0.1807423153243749  0.0383871468232494
  0.3095029338745960  0.8287517462432119  0.8235892207000655
  0.5045115179993032  0.6884207325049225  0.8532704512266482
  0.4969238639256953  0.8312321253682307  0.6568051210816944
  0.3396059414018714  0.8091946212080147  0.5173547864657003
  0.4740347491675168  0.6709407114263914  0.5015104164339144
  0.4943015429534475  0.8140182148891961  0.3271641685501936
  0.3302785887779879  0.8576205965340579  0.2073510795956561
  0.5263951371163599  0.6745870298721007  0.1525097558474074
  0.4561944079405727  0.8674849476353068  0.0139549104227300
  0.3097854613078208  0.4684820831364421  0.8350495876317340
  0.4973875028402598  0.3499894663123133  0.8224883414331392
  0.5332000867597131  0.5408684981383383  0.6745442487838033
  0.3447655639855053  0.5198675824140735  0.5340480950583932
  0.4767736681203744  0.3411464811328804  0.5160939088587146
  0.5055842599063255  0.4820654644796417  0.3200467525129695
  0.3432465514047802  0.4992465412912199  0.1165929118760215
  0.5283959665607101  0.3366787542050194  0.1536988123371702
  0.5375916606314882  0.5106454918560184  0.9882750604476546
  0.3253922427114088  0.1851820668339715  0.8113614933085074
  0.5041312790292026  0.0106644328234784  0.8063526383914678
  0.5160911144632275  0.1800369987552090  0.6576779055490525
  0.3161822977763338  0.1497539930953668  0.5272293803756624
  0.4856256005754027  0.9945283983075135  0.5077158986123742
  0.4726970302524762  0.1791997402350681  0.3503081794493167
  0.3259180874583371  0.1628638570839779  0.1745996380067255
  0.5086669809603431  0.0174152471479045  0.1943736028975293
  0.4991316547856283  0.1493865880002154  0.0091436673219167
  0.9951658872831675  0.8576686122302398  0.8388829891567486
  0.1745909732267980  0.6622394251817277  0.8308973230180789
  0.1506414241262172  0.8422648044293559  0.6481929027388855
  0.0010771322561636  0.8114555694111911  0.5091687985186771
  0.1599259128223331  0.6592034647761841  0.5210422785733126
  0.1668803143564579  0.8352765368498214  0.3203854129670677
  0.0431515474025673  0.8383568287792429  0.1651020948408317
  0.1854581276894079  0.6489541379118726  0.1694102485254377
  0.1962107691700195  0.8412589039341349  0.9967764230959265
  0.0134911592710864  0.5373632713462492  0.8314594224496031
  0.1236035062569330  0.3417223860891922  0.8497913780093764
  0.1604102296600216  0.4944031097591710  0.6586669641137409
  0.0117036512471859  0.4893893156221195  0.4947131590184486
  0.1848525064422046  0.3429694581713904  0.5093369344261331
  0.1642857360113675  0.4942884550782377  0.3407034207965651
  0.0073909663595898  0.4700793540145697  0.1498327998144537
  0.2119818606098248  0.3400008250025670  0.1774838793385415
  0.1562413457855886  0.5276940194354725  0.0080978633945293
  0.9973051999188275  0.1363875933067087  0.8363749180113347
  0.2099984803771562  0.9993784923779807  0.8356605934384587
  0.1831911876455613  0.1542251815257773  0.6695126815517909
  0.9853972718410144  0.1745794440398706  0.4912602798614041
  0.1525951285534041  0.9949716483900845  0.4953429095699726
  0.1618816212773118  0.1595477275203381  0.3222444017777140
  0.1320464753435125  0.1867788721298849  0.9851706607217864
  0.9825483755372398  0.1412163387563041  0.1763216849182699
