Cl O  Li
 1.0000000000000000
    11.7780000000000005    0.0000000000000000    0.0000000000000000
     0.0000000000000000   11.7780000000000005    0.0000000000000000
     0.0000000000000000    0.0000000000000000   11.7780000000000005
 Cl  O   Li 
  27  27  80
Direct
  0.6438350127993779  0.6762477234262946  0.6716503675605782
  0.6765228518093021  0.6605917724923416  0.3489890592162961
  0.6599312020809536  0.6805434278473459  0.0188780938485042
  0.6610880726698188  0.2982555316354888  0.6680758297466819
  0.6956552039234711  0.3368590380168600  0.3231639425297010
  0.6895208546102654  0.3310946443796315  0.0156013667100827
  0.6436987793949499  0.9978185168533598  0.6650998282332505
  0.6785797940318209  0.9968235263853852  0.3393825596909172
  0.6470660723953938  0.9901196153572445  0.0067062426485002
  0.3352476475104662  0.6512700878258486  0.6510905403775448
  0.3282028825413687  0.6786125167059518  0.3394367291694089
  0.3576684675319377  0.6768141547966816  0.9926524885284118
  0.3477941165344351  0.3402249747560711  0.6910702065706891
  0.3219781697931902  0.3190673804953617  0.3514090341096934
  0.3419459180986432  0.3229566114006752  0.0281356749290428
  0.3379545627467709  0.0287916116657024  0.6661679952889502
  0.3234526484229878  0.0001656592850163  0.3016758456249949
  0.3336317128583589  0.0127058081569438  0.9835203673051671
  0.9969108454820468  0.6738509466727893  0.6535093007086442
  0.0155372840063734  0.6848203065527777  0.3297933069501702
  0.0009515762112436  0.6786083062233186  0.9897537167299367
  0.9964299531407128  0.3068309689833725  0.6675292767125723
  0.9974104338591715  0.3193957374126316  0.3262731612845204
  0.9950542171605751  0.3312298251634012  0.9900922822963556
  0.9875920387588741  0.9880039186835589  0.6749852317476650
  0.9953678740785318  0.9615654821960278  0.3287145327170678
  0.9917361835174993  0.9835509170583923  0.0153858755246944
  0.8118282496708391  0.8515170386565114  0.8558921403111969
  0.8177828437639377  0.8419280693136338  0.5029691216326980
  0.8240874747113263  0.8387750655879708  0.1845492875028604
  0.8400660133916334  0.5045839578339834  0.8278937263339328
  0.8365823248376292  0.4961354220035380  0.5068856801897169
  0.8316353316269689  0.5196820198190453  0.1389634142904526
  0.8260961988106136  0.1515263454101586  0.8319898781694191
  0.8410676224334016  0.1669660131628914  0.5206858204177034
  0.8507737565526281  0.1560120276173255  0.1613794165481419
  0.5033086569581571  0.8334047569310402  0.8463260047395225
  0.4811113568849313  0.8517628660656309  0.5049030286944272
  0.5121731803756746  0.8301428474526548  0.1909203145225406
  0.5126453617117355  0.4905579899893849  0.8355670070495511
  0.5233768698083613  0.4934640731998601  0.4912825222303180
  0.5058932050429361  0.4962645299758177  0.1736376395747330
  0.5083834626079791  0.1843636970389692  0.8250793425769580
  0.4977573785188213  0.1602314575260610  0.4706931811834427
  0.5095948265586153  0.1656379196540627  0.1671378993155200
  0.1646505813777447  0.8653597290503385  0.8054249715870992
  0.1886532777002163  0.8588749380287436  0.4996319497772449
  0.1846738453015697  0.8368424540593594  0.1316902812452696
  0.1674525563565746  0.5017779545568650  0.8164999174161959
  0.1560924717853127  0.4817902267016095  0.4950529689428851
  0.1446428031232193  0.5057378729879235  0.1602806931292944
  0.1699816495510967  0.1735117246050845  0.8419189249557424
  0.1422432834831912  0.1502159035400611  0.4879397229028842
  0.1466810410863486  0.1661140888030019  0.1860622880002104
  0.6585572487240221  0.8507758317714390  0.8291704742216125
  0.7876702007090980  0.6839607203290582  0.8213717697060183
  0.8093197736713260  0.8582212605999487  0.6851956926184398
  0.6571364537477968  0.8414573859377407  0.5097595370138848
  0.8203407929343904  0.6892694911628892  0.5005059083214910
  0.8543993059830415  0.7965662727238584  0.3465488011325218
  0.6724924077941385  0.8433751798063162  0.1805385598823348
  0.8056107433256290  0.6648143602630520  0.1628232882080295
  0.8128726922763176  0.8602906318433171  0.0164379521602835
  0.6736269709221301  0.4972285685571670  0.8453601038293161
  0.8387986581190584  0.3290418114262210  0.8268013490030923
  0.8573028386126910  0.4735926599273452  0.6736476747742641
  0.6758422920683108  0.4768601968777116  0.5524056127906948
  0.8415709370497018  0.3350089559963992  0.4997987496661732
  0.8223451446094049  0.5018165776379421  0.3164157939164852
  0.6843009897366499  0.5245097025266299  0.1742591715880403
  0.8781176024220790  0.3336939898817415  0.1356302606119355
  0.8679600559820878  0.5034167634655849  0.9779726047706505
  0.6826815733392881  0.1693320918543141  0.8168174040008984
  0.8448213486716659  0.0047213028108872  0.8678602752542581
  0.8403381563172101  0.1341502908643381  0.6745492848534952
  0.6722930981210333  0.1282754530288095  0.5022377931876494
  0.8549952512172704  0.9920320929854279  0.4642551103249118
  0.8412464060036705  0.1942787358734554  0.3465560480209000
  0.6705554238412543  0.1551881697678727  0.2256626463876825
  0.8476191334105677  0.9952325013306166  0.1935799832854524
  0.8213351146023703  0.1445248694656331  0.0182960920424902
  0.3192809508125645  0.8392860724321582  0.8384795274402062
  0.4922598647038779  0.6684242823252307  0.8093011257050041
  0.4829794751555178  0.8499241806880665  0.6676506924569646
  0.3290474689207077  0.8604323307780862  0.4908853603588650
  0.4872503620202796  0.6563809659759220  0.5033003327713683
  0.5026374898322704  0.8649156850741818  0.3269863522659184
  0.3361519296267528  0.8282013291338578  0.1330445688143257
  0.5096153121760419  0.6742789989120219  0.1794765870943550
  0.5344597507778049  0.8112318695600048  0.0203752873236131
  0.3520858938707229  0.5056048784162901  0.8239523907060341
  0.5146431142649307  0.3372292568480019  0.8498686400503905
  0.5032958635686178  0.4697607563624983  0.6668270572772664
  0.3380452905504332  0.4523768881325605  0.5053654530466938
  0.5149811269524700  0.2918189384944204  0.4995834482561440
  0.5370742985513453  0.4980239044353212  0.3254362671330688
  0.3452813490814690  0.4954333240244618  0.1377790844722996
  0.5065582993573325  0.3283665957593411  0.1715169328315681
  0.5445966496587296  0.5309912142300200  0.0057705843395146
  0.3473128259811393  0.1528634874081076  0.8562169142696879
  0.4968264974882078  0.0142323118036759  0.8303127295774917
  0.4898581487303609  0.1678948294375982  0.6560415011583787
  0.3221328847872530  0.1467680445738485  0.4932520159673793
  0.4899330062533290  0.0089039903123541  0.4883161562444508
  0.4696764147907014  0.1443366932802597  0.3217364067327217
  0.3196272427664353  0.1536165970037006  0.1328567873616991
  0.4934894470889847  0.0101549742972872  0.1757110796017999
  0.5338307694490696  0.1766032107503528  0.0012358236941552
  0.9692112097182963  0.8253483222958061  0.8384603373558972
  0.1488085999851448  0.6668755534536138  0.7836763713121726
  0.1507173048791901  0.9177301168954353  0.6606358259631033
  0.0250513970914519  0.8347759977655062  0.5007384970015621
  0.1892816719905076  0.6424064146019397  0.5333784417715343
  0.2265109213743728  0.8440584115843630  0.3315794625083452
  0.9878182370700209  0.8255960930046025  0.1641316855649253
  0.1769237637633063  0.6926351242615256  0.1295512852181671
  0.1637685459942167  0.8446643972002559  0.9760896587186756
  0.0272014279230996  0.4856556117004719  0.8051329098398351
  0.2082783777386926  0.3271775392695784  0.8341987621354203
  0.1850678088256379  0.4700658544117612  0.6622382384882927
  0.9831088691774613  0.4767390240457790  0.4835962456981107
  0.1530278983162981  0.3238158939838202  0.4805519452981205
  0.1463680989889109  0.5308375316139103  0.3247344323091573
  0.0029483329775469  0.5419239752994280  0.1458897290714356
  0.1620674806463706  0.3226312706464452  0.1488226743514021
  0.1624186106067285  0.5003203988284196  0.9786902111920693
  0.0007189104151646  0.1815389895024613  0.8293452092508878
  0.1549165224470161  0.0098634325345069  0.8528074759575025
  0.1808093712244309  0.1806560027117999  0.6782456027804732
  0.9977315932296568  0.1601671869377908  0.4981935436476985
  0.1626735168690257  0.0003432741553654  0.5063462121023460
  0.1858316470548634  0.1661507685844022  0.3276843612185912
  0.0013134163614413  0.1529243875860009  0.1401095663670377
  0.1480408346711557  0.0130162338331202  0.1486402066088294
