Cl O  Li
 1.0000000000000000
    11.7780000000000005    0.0000000000000000    0.0000000000000000
     0.0000000000000000   11.7780000000000005    0.0000000000000000
     0.0000000000000000    0.0000000000000000   11.7780000000000005
 Cl  O   Li 
  27  27  80
Direct
  0.6786479829940046  0.6552044392519526  0.6573563153473181
  0.6540412342339647  0.6646668512033762  0.3230714433839234
  0.6635000024984943  0.6557207901702514  0.0018084568178459
  0.6796834783238876  0.3218981806174835  0.6601763265762737
  0.6552390760576832  0.3237557524387821  0.3203409656390369
  0.6501921243698957  0.3239428152753823  0.9907734776793687
  0.6537577149081966  0.0061543783146009  0.6887648558887367
  0.6787701274757758  0.0221247496960386  0.3526561162078133
  0.6610867076977359  0.0225824828014291  0.0017354818664397
  0.3248817139546945  0.6843251492779983  0.6602298887736165
  0.3529172328101634  0.6761491207418190  0.3169395434380186
  0.3458959291361227  0.6702619348562606  0.0188375906207725
  0.3248023220658139  0.3340696535319384  0.6399894105041427
  0.3252268115889723  0.3394610753301496  0.3288523145829950
  0.3481401973504062  0.3434373093814113  0.9620258799261060
  0.3520590635757915  0.0091058855224377  0.6723088727690770
  0.3562237572102963  0.9943507817707726  0.3417699133598294
  0.3457873472666795  0.0035106652312949  0.0207617406987076
  0.9848779982357543  0.6338444989123928  0.6551820868922205
  0.0062089775903516  0.6575396376969481  0.3114138517777613
  0.0159533476489227  0.6636700599253902  0.9913408781692562
  0.9795655849801985  0.3328183912098120  0.6799150691604350
  0.9881770847069810  0.3393635864630283  0.3432966586538519
  0.9955978503298264  0.3509905508565755  0.0415659580588079
  0.9950065413076193  0.0028713009763729  0.6830988417976479
  0.9745065230941646  0.9768893763897968  0.3165111470728016
  0.0041632238904188  0.0004613419519886  0.0009201740294974
  0.8401976025057740  0.8236646753270028  0.8210178967537067
  0.8257897357892678  0.8220769994910295  0.4843560049168545
  0.8215713989866003  0.8356194500847860  0.1536806197974817
  0.8175132224656320  0.4925369770864945  0.8327324310889411
  0.8186676234444912  0.5051262796741737  0.4765465717676279
  0.8194983030855180  0.4973303281664551  0.1500894728441599
  0.8406149261113741  0.1774363797755092  0.8346514395198145
  0.8418352373376059  0.1655683753725673  0.5055299552831775
  0.8255082812194062  0.1508470200055892  0.1682833326706480
  0.5042348936984830  0.8218886613640164  0.8467228932290274
  0.5011094605369849  0.8384007977472544  0.5144092963607310
  0.5018368618972697  0.8424314441894676  0.1745739961516092
  0.5138583161252142  0.5231069433319491  0.8429248759522954
  0.5110506529462885  0.4879825708959646  0.4957250772491218
  0.4959886634614778  0.4879612755703394  0.1593739716616284
  0.4720909356856126  0.1755206304201354  0.8200420364326565
  0.5090414430220819  0.1723055625610435  0.5159381468960701
  0.5056934615621765  0.1687137475984578  0.1808727769572620
  0.1726887585036011  0.8313294541065354  0.8348187252336621
  0.1894041316447080  0.8346406748142207  0.5083420313717859
  0.1815955486890899  0.8247569716870232  0.1661808241192485
  0.1715089934154182  0.4875668262213520  0.8451878484259683
  0.1667171200529202  0.5326929977253112  0.4930984243380112
  0.1776794759569901  0.5024956996782994  0.1641385578578308
  0.1614927916628593  0.1715006316407349  0.8464288072112667
  0.1579941133858269  0.1537004215763879  0.5125804489377805
  0.1599080915045162  0.1636274440922146  0.1701102772793315
  0.6858156414249571  0.8392358498125541  0.8103357403717902
  0.8353534422363462  0.6684258810303418  0.8096181769661193
  0.8679003110488802  0.8300464714657256  0.6440043486073016
  0.6749123537339808  0.8334316995027702  0.4984645629977185
  0.8309287917846550  0.6632493760307655  0.4745257425307702
  0.8597395859976559  0.8046507835223009  0.3313990088094859
  0.6788925148700063  0.8312982803408862  0.1928601627127468
  0.8050624204653373  0.6724522360191020  0.1448109850969597
  0.8310878994456959  0.8336055438530271  0.9857703223489466
  0.6567199108968406  0.4789040011161257  0.7943909665233678
  0.8386656345938701  0.3318389681726877  0.7822422666520008
  0.8213248428401020  0.4854916250789529  0.6416522677463635
  0.6673228778169258  0.4980911299899355  0.4659261961212708
  0.8302384345744599  0.3177597417713209  0.4911196189566652
  0.8459253973324221  0.5420644794460230  0.2988154399728469
  0.6589793206544393  0.4830335129293978  0.1844420314251619
  0.8112248666530373  0.3274349652800628  0.1625349914984584
  0.7961169262279515  0.4887997284100732  0.9917640310413024
  0.6602234373017124  0.1987442558778939  0.8208634044293983
  0.8679269504486167  0.9946379688216469  0.8241386740930623
  0.8375673463931793  0.1928629606194809  0.6589443150665710
  0.6642916542043443  0.1616344991814490  0.5179625793344119
  0.0028773722358522  0.1225717465524910  0.5116104185157609
  0.8267374992358235  0.1968615628597312  0.3352417219787853
  0.6663359649789639  0.1599913785765710  0.1771571677324505
  0.8170406767608820  0.9854243308580846  0.1356293900701911
  0.0185308940452090  0.1986894183901382  0.8301170232433521
  0.3487762636258800  0.8137880976319540  0.8042658438311996
  0.5016950819916809  0.6739246903784032  0.8791759978321539
  0.5530248733452430  0.8200200977539207  0.6534560724105026
  0.3518935592199812  0.8012220741549869  0.5067081616830780
  0.5240934326106388  0.6521104632539734  0.4840071421394530
  0.4977038278533335  0.8229355330940910  0.3352275115998984
  0.3423103388053144  0.8444746618580187  0.1679701982675132
  0.5096747967750900  0.6448351541180064  0.1579297052689939
  0.5123729064347343  0.8234113986024555  0.0243289101679959
  0.3488063038000510  0.5399837722878730  0.8145418505806575
  0.4709469394571065  0.3132795858226101  0.7918526932621432
  0.5258076253526561  0.5594291171062422  0.6770988635600130
  0.3240283827268098  0.5050961990145927  0.5190849158686034
  0.5077362338912184  0.3386470554353108  0.5357075369355514
  0.4902356057390309  0.5081000140046489  0.3545123317678792
  0.3437334414499058  0.4810282300899548  0.1620811298103928
  0.3479806848352662  0.1535726395012836  0.1831773481896423
  0.5077404848592615  0.4838730993606099  0.9825751695160351
  0.3214418306142389  0.1926307767935091  0.8597290740827975
  0.5051437506660921  0.0037366449844865  0.8448106863470229
  0.4122190062338375  0.1650666295659023  0.6642551506563084
  0.5122336366245611  0.0046412737570957  0.5221358153904128
  0.5283366274550056  0.1720425288527020  0.3572753395396475
  0.4953685079521082  0.3185128716096188  0.1342379672588731
  0.1304143489113381  0.3246467958260203  0.1800984530068635
  0.5128636705739547  0.0137143232880317  0.1864964028241498
  0.4833997657278979  0.1705870176374583  0.0090328707328494
  0.0191018979794930  0.8150158581736139  0.8447222662117269
  0.1688928970749479  0.6451600090473173  0.7846239423476007
  0.1444042240129804  0.8545705895040902  0.6733665136181939
  0.8474254629842108  0.9763357229840075  0.4852173724986112
  0.1787058215842280  0.6907855680828128  0.5478487874914906
  0.1572836855336569  0.8300771594064557  0.3242020591844463
  0.0201688365560350  0.8499674793654098  0.1338157752827284
  0.1809796239050584  0.6702711655297254  0.1586657502642997
  0.2110730363901794  0.8150799060921295  0.9883790845043735
  0.0116919014756899  0.5112877137266254  0.8726986561259872
  0.1785429690227683  0.3368084307858613  0.8578720892999430
  0.1390349780980606  0.4723769028411498  0.6772555420964578
  0.9938279376446341  0.4950156558242962  0.4914706274607933
  0.3238174334983485  0.1691532470873493  0.4798063355192870
  0.2094948948682456  0.5326705283227978  0.3438082322937785
  0.9718373276082277  0.4961916760120601  0.1651650654267084
  0.1725189222089278  0.1517067074428336  0.0175048134560820
  0.1834157727197243  0.4919168215771248  0.0042412877266508
  0.1829571944814015  0.1476908280538939  0.6710481571037310
  0.1859719607748447  0.0033242482635000  0.8660383203669182
  0.2157878457748680  0.9995994025138168  0.4614996833407226
  0.1595317087697119  0.2962089329666270  0.4400541973299721
  0.2146064410275828  0.9899631349837611  0.4645577487800904
  0.1402907444220422  0.0105959662170888  0.2116120329443558
  0.8311520184565914  0.1428774468173685  0.0086459352229120
  0.9926684785198711  0.1316722897885717  0.1755717185940236
