Cl O  Li
 1.0000000000000000
    11.7780000000000005    0.0000000000000000    0.0000000000000000
     0.0000000000000000   11.7780000000000005    0.0000000000000000
     0.0000000000000000    0.0000000000000000   11.7780000000000005
 Cl  O   Li 
  27  27  80
Direct
  0.6497329930945472  0.6409461846663222  0.6678344770735971
  0.6520896892922177  0.6851467382429598  0.3428001973968511
  0.6992104959728073  0.6649816033213732  0.9650237675376128
  0.6407619525634932  0.3528999018156444  0.6770550696714848
  0.6576982545866100  0.3676286558912880  0.3372862667481795
  0.6555821631801777  0.3043572880235813  0.0001660821267739
  0.6721894402767606  0.9952251466305054  0.6566029336788759
  0.6715753980642911  0.0298562922756932  0.3355610214892503
  0.6619314090493134  0.9836983146748314  0.9858690586112602
  0.3322551937257601  0.6557978929319356  0.6654189960607025
  0.3316618193150618  0.6692805870606291  0.3429914504733795
  0.3344564664346936  0.6837861045858964  0.9938305347174942
  0.3366709171445608  0.3275522700538114  0.6823490228452798
  0.3324607988801101  0.2950839834219595  0.3438513200949687
  0.3630128098462589  0.3338774878321512  0.0221642412688176
  0.3634727645885196  0.9962273866753425  0.6686747517567783
  0.3435299755382908  0.9891725050981455  0.3233488000096968
  0.3541519706010453  0.9648989145719599  0.9610418402255789
  0.0180217534101520  0.6562830295991752  0.6735957533342607
  0.0075895027098214  0.6763426595424735  0.3345598577869915
  0.0160769051663881  0.6633169242357052  0.0220545637629682
  0.0069759108975373  0.3449585672008526  0.6742631553170234
  0.0184494273638355  0.3508965217904684  0.3549858199620780
  0.9922528235141157  0.3394404058268429  0.9929136565780416
  0.9955823066208960  0.0293847080994290  0.6701417001003281
  0.9868840223061205  0.9937322471391877  0.3311172619240702
  0.9663458472263875  0.0243919436025003  0.0053688892003860
  0.8426432589077830  0.8318527465711025  0.8079576792026950
  0.8207561175600623  0.8407413992929411  0.4958784473069722
  0.8196979908860260  0.8219540638422299  0.1295413167842078
  0.8325865211385277  0.5059762893969085  0.8251446263987136
  0.8287178973068707  0.5132234611729712  0.5136056318131507
  0.8437559599144102  0.4994140497861100  0.1486856120943074
  0.8315024838021339  0.1836900378902554  0.8311403536683052
  0.8071266233349478  0.1766392203523727  0.5264369156960057
  0.8336393037384525  0.1920289189878945  0.1758313426102459
  0.5209953003741499  0.8270463996745532  0.8307142852141594
  0.5046808542476199  0.8259361277925222  0.4899172540920544
  0.4916083582923779  0.8229066045671578  0.1702902057660987
  0.4919118774106533  0.5082131892665841  0.8287849125183427
  0.4924334914322435  0.5056550376690819  0.5092668104305196
  0.4976392268977922  0.5110909326901057  0.1765381571395793
  0.4785416517507565  0.1460320277724837  0.8174175810587027
  0.4996064939373072  0.1578719757863413  0.5038617248064556
  0.5062201500187220  0.1442566413333512  0.1552507767759738
  0.1669477184639131  0.8350224302856586  0.8439863742403761
  0.1570605639555190  0.8413780728495637  0.4868265574122798
  0.1415178507131515  0.8512542456905133  0.1411605585858099
  0.1837904384619675  0.4919780540581148  0.8472048023884926
  0.1675393520019842  0.4990421103250459  0.4975977007252311
  0.1815807245450626  0.4926569943827087  0.1822427538263353
  0.1524398325421647  0.1373828867358151  0.8532345374024288
  0.1701065318459017  0.1760834164020933  0.5197035847428257
  0.1743304151497300  0.1415084006148562  0.1609090075470027
  0.6737771970835539  0.8117086640626819  0.8308573606528664
  0.8500835056038212  0.6680225029469288  0.8366110661418722
  0.8427734599861311  0.8635541180825739  0.6539259574032174
  0.6597971396938205  0.8296726882169744  0.4956997851929333
  0.8184516070557967  0.6890581956383272  0.5105653799541539
  0.8707843434696551  0.8337419577402646  0.3424705247037583
  0.6798524781836660  0.7854684504680332  0.1987302345949235
  0.8614841160704272  0.6578162120733773  0.1693747597980226
  0.8018230346335884  0.8258921606373338  0.9853133432228149
  0.6726458323029471  0.4928173975768673  0.8443214314929904
  0.8267788081126698  0.3456276290854225  0.8275055735644272
  0.8255364728234340  0.5303922709053395  0.6747892632191164
  0.6524094835452867  0.5163810397499570  0.5246640191095840
  0.7871399481003506  0.3734884736397310  0.5219104039529203
  0.8631240990560352  0.5039575654013675  0.3542021438819847
  0.6759554335942350  0.4907991189208356  0.2038785010210708
  0.8096685402830665  0.3454317606721617  0.1579730157399386
  0.8390088026871844  0.4938492492198563  0.9799468136258679
  0.6638995262824368  0.1571551107539917  0.8265759475815216
  0.8233890457097125  0.0023358926964428  0.8241526528845099
  0.8263709580929944  0.1784838975706073  0.6871569081874066
  0.6528014632842680  0.1805743414698465  0.5187484529516619
  0.8239633717350368  0.0146983802030583  0.5045568997804332
  0.8030797827287610  0.1886981438272110  0.3459506100562784
  0.6590326132126261  0.1314547701008133  0.1440009744613722
  0.8242495226124505  0.0126943473506470  0.1531827617938381
  0.8607295490000766  0.1899033944809474  0.0005503831593621
  0.3330815819133337  0.8253227738320214  0.8334455119391297
  0.4794839091815613  0.6721684923220440  0.8017075416170780
  0.4922061253700540  0.8086753352087838  0.6603553238986124
  0.3343792000298345  0.8564327344751762  0.4743112621539600
  0.4802193671384232  0.6720793029639593  0.5245947485731870
  0.4900926250298574  0.8339153972364221  0.3381042542131919
  0.3171001080408061  0.8286722937375044  0.1511951811998888
  0.4797594123961625  0.6669491537587575  0.1885296926495824
  0.5091797144557203  0.8285947236920708  0.9869531225162043
  0.3421843619683131  0.4664379546574554  0.8340591897829099
  0.5143994578731061  0.3273657942556553  0.8334130426403626
  0.4817304445788013  0.4909145833099675  0.6690889984712233
  0.3339509048781423  0.5301084681817018  0.5044153223018937
  0.4869811998201966  0.3167360867223084  0.5198787651116102
  0.4813661163748049  0.5016534192657914  0.3236598696569251
  0.3328073135037355  0.5224876970427679  0.1717361016964830
  0.5076623617768022  0.3502519940643185  0.1714768533739704
  0.4742613317854801  0.5474857777752302  0.9982697320830421
  0.3267991572132941  0.1774399205473432  0.8345849333163132
  0.5105641130484146  0.9911815435919443  0.8069166373716511
  0.4867603923944164  0.2109270225201852  0.6620480593733646
  0.3264538571519667  0.1711390952284886  0.5136304898548502
  0.5216893417566492  0.0108307039830274  0.5104823848637891
  0.5001446664915604  0.1615074036567783  0.3271532342239036
  0.3388855905241827  0.1315752749234820  0.1331361782738909
  0.5089401622851405  0.9811312044152122  0.1505584165510937
  0.4874810731766521  0.1980489172607415  0.9963408059919040
  0.0204013757363666  0.8831212834994348  0.8117733481181584
  0.1630073038790904  0.6723232680442219  0.8447308199582433
  0.1610630123097131  0.8073515432747606  0.6723650778430857
  0.0128705442007701  0.8337102171788765  0.4914019755305654
  0.1825501679286382  0.6677081742242010  0.4753688625176669
  0.1558224998770311  0.8767040221416099  0.3337776594243608
  0.9993147318402744  0.8388256296948622  0.1360811578419604
  0.1683550824053927  0.6442282558788550  0.1930014883611419
  0.1889765182609932  0.8283726207331726  0.9790555652812418
  0.0391600715550566  0.4397096894460518  0.8226305634126297
  0.1535094368299171  0.1447614842738762  0.0091347013557724
  0.1720628273393244  0.5156388207296361  0.6765219982788833
  0.0054649315077614  0.5104679027166307  0.5105433963765597
  0.1433326395775023  0.3463676618936069  0.5058064009872273
  0.1572311391089236  0.5022730484648320  0.3416068494536354
  0.0191332588320170  0.4703806667892918  0.1494489543772612
  0.1902710594863391  0.3374759322806135  0.1540679854033983
  0.1942676172133878  0.4542771901339280  0.0004763996309956
  0.9940073485806105  0.1592448866439670  0.8619619772219098
  0.1956016519561244  0.9975126934317162  0.8351996637807518
  0.1743733094415551  0.1902623178827176  0.6895597982378118
  0.0021940791818721  0.1769081649305645  0.5138227550666270
  0.1575588482596346  0.0176733442778601  0.5032148489265296
  0.1789775936571237  0.1562121650712180  0.3230413740493627
  0.9763139421905923  0.1608225727050391  0.2076518019550383
  0.1551618387150224  0.9951397154571148  0.1659391881537250
