Cl O  Li
 1.0000000000000000
    11.7780000000000005    0.0000000000000000    0.0000000000000000
     0.0000000000000000   11.7780000000000005    0.0000000000000000
     0.0000000000000000    0.0000000000000000   11.7780000000000005
 Cl  O   Li 
  27  27  80
Direct
  0.6526741436903227  0.6637934214295101  0.6604080561699449
  0.6639507068608907  0.6926015840908654  0.3328714745187006
  0.6684432918304513  0.6538462371795365  0.9883614568672466
  0.6717152012050907  0.3359747576845505  0.6545848777174922
  0.6773871666514396  0.3332088956913817  0.3447936382787817
  0.6753191314265991  0.3440946734425613  0.0004034479519644
  0.6530806172060606  0.0152817044768194  0.6858119221661761
  0.6721759656555498  0.9793560220343774  0.3379041146140763
  0.6802046272995693  0.9866060062812616  0.0245221457278341
  0.3511760975641408  0.6647196466379811  0.6957544910794177
  0.3128244306752643  0.6728034898957408  0.3388563112130199
  0.3279951234857478  0.6564481130197674  0.0094949774910739
  0.2987323906416534  0.3331801105649186  0.6297366739726054
  0.3346901349984251  0.3395872505702600  0.3093546739649048
  0.3353762817259873  0.3152841018993152  0.0003483280942890
  0.3458937637029970  0.9888309477729779  0.6655499056586176
  0.3453850645271757  0.0043938458388277  0.3443294730538879
  0.3085396573148952  0.0021928800915373  0.0042031399962403
  0.9931904081048630  0.6570093622576829  0.6601382209127346
  0.0001861335199483  0.6828726162004358  0.3065095212963801
  0.0164846331591166  0.6464871232450061  0.9933151320682996
  0.0124096210334611  0.3414696399478482  0.6854063393294569
  0.0161529678247535  0.3644239362160204  0.3217701119596222
  0.9799872486519816  0.3426601943977785  0.0138774332894305
  0.0080587596694663  0.9821053697758004  0.6547295725725965
  0.9994644167421665  0.9741992599979893  0.3433474184651179
  0.0102770438415866  0.0021817537203814  0.0112559865490036
  0.8158186859264437  0.8373351432470216  0.8235013438770893
  0.8256153454222825  0.8466774754725809  0.4978554915978796
  0.8370641335267101  0.8264777660109109  0.1543831744659807
  0.8312323721673511  0.5076292926033966  0.8237456328406313
  0.8330843367593739  0.5168649457737798  0.4704668688650418
  0.8474922034758804  0.5075081602568741  0.1758725365397472
  0.8658546040639238  0.1737412181427655  0.8369204759121863
  0.8340956622995264  0.1737441533349857  0.5042053852335741
  0.8343857807471136  0.1863887994780447  0.1735878234009395
  0.4967004177471290  0.8219728734767304  0.8471567259890892
  0.4970141391887078  0.8303483331422448  0.5261506231445504
  0.4880093743111786  0.8098757520176192  0.1505285383434558
  0.5077662543589904  0.4872036340688847  0.8413485271383122
  0.4894453918015391  0.4865006049253801  0.5149470551680935
  0.4999938248744433  0.4791086978088031  0.1731588197545734
  0.4926473019024024  0.1628592156560622  0.8207080935041001
  0.4879893745186713  0.1812952085980133  0.5085454616639131
  0.4997518840646775  0.1484436162262584  0.1611104427290229
  0.1655470922421322  0.8434160518191145  0.8261854455848961
  0.1660573399848835  0.8371596794803675  0.5073472149860955
  0.1517182276157976  0.8294392737475860  0.1495036603123280
  0.1812842569084128  0.5041788830563583  0.8467883897295093
  0.1690588371852208  0.4999169434671918  0.4808491498155766
  0.1731347868011502  0.5009813858651777  0.1697168716582111
  0.1805343051747947  0.1880417782802416  0.8079321936620349
  0.1617161603271237  0.1736060171162907  0.5003664372073986
  0.1552128775945415  0.1636721525661852  0.1894787718968545
  0.6635109948235970  0.8233978789355886  0.8448558591717180
  0.8190533892093534  0.6761261679744375  0.8188449549389356
  0.8061649399276718  0.8508826950024296  0.6728794247584862
  0.6627767919144432  0.8419266745584610  0.5141935812038112
  0.8213966037655158  0.6716036642869356  0.5171928213425446
  0.8254223919585369  0.8268847253515678  0.3499626939629301
  0.6588814072268196  0.8239521241975858  0.1453629644045616
  0.8644138092951913  0.6667557793597938  0.1363857093630826
  0.8717440166470286  0.8524353104734003  0.9955129957791997
  0.6627790186119896  0.4843177125925565  0.8343058471678262
  0.8766594312379404  0.3231263282305885  0.8435423505318178
  0.8653260265518251  0.4711772416340352  0.6910944584543699
  0.6698683377747194  0.5032349252383361  0.5351505297728875
  0.8300460686854639  0.3679552760975170  0.4838658796514017
  0.8185412487736878  0.5621331400957877  0.3211699967281699
  0.6724311451943642  0.4902599991210351  0.1892814055234261
  0.8517063297959147  0.3573740093571563  0.1937883830562182
  0.8125101372558139  0.4784525912554121  0.0179804537277461
  0.6394384105622267  0.1902960666334839  0.8365124639508711
  0.8050106199196323  0.9972299484391999  0.8340867401292633
  0.8433947561072759  0.2021180290039783  0.6849442388604698
  0.6566571388050436  0.1900592269853697  0.5152394812840471
  0.8614782931916938  0.0004294124147579  0.5065168592283482
  0.8287809805958450  0.1673350396659101  0.3389796500143840
  0.6664696685815766  0.1892969676871316  0.1691545799209897
  0.8388972319177034  0.0051331138523149  0.1997926325046010
  0.8485694392634053  0.1716766444204741  0.9783000417679748
  0.3408175410638272  0.8480589996011703  0.8193864877822133
  0.5104707202279941  0.6693693149980858  0.8239402057207743
  0.4682891740447673  0.8432576728954525  0.6714923946141459
  0.3396022702711322  0.8103909693444398  0.4838936526426165
  0.5099355435940761  0.6442722474383347  0.5259485199781596
  0.4905360282597522  0.8644434450014763  0.2956455044530401
  0.3382832758581862  0.8177905686889043  0.1458187795136565
  0.5360032083715859  0.6650932864862624  0.1914598849465668
  0.4665523904440069  0.7793597123381967  0.9810929429543034
  0.3485602137720727  0.5281968929851374  0.8468287941686234
  0.4934058365429266  0.3272054154657878  0.8174882078812259
  0.4760218468567591  0.4833818923419311  0.6883080096302495
  0.3238513203227691  0.4730363316582064  0.4829826094628707
  0.4775983082341806  0.3283328734043359  0.5203457036119779
  0.4681225765828887  0.4743527147622117  0.3471372576890434
  0.3360453638532622  0.5082586787862312  0.1825570420885466
  0.5126402523755395  0.3130336191746068  0.1865022238303890
  0.5199336180043369  0.4819244985551255  0.0125129889431572
  0.3270803556482882  0.1810312437252433  0.8291495443878070
  0.5050409385038704  0.9974906097974070  0.8177746016710993
  0.4828073230179339  0.1300577948285681  0.6540542759348965
  0.3175939156060688  0.2030333231517670  0.4933691008960389
  0.4869504379289439  0.9864509927073004  0.5215422903879885
  0.5055134032378007  0.1136162751216075  0.3457128190259242
  0.3057219942397158  0.1637157148672743  0.1495544492590902
  0.4756029038347616  0.9866851059160892  0.1373404261787946
  0.4838102275928200  0.1833718672151699  0.9852656223359176
  0.0119631782967659  0.8171608586227901  0.7645029276300510
  0.1559424145602004  0.6875921623780866  0.8690764176063971
  0.1740106684023682  0.8495266766820989  0.6713623149920278
  0.0054569432921812  0.8549750412093823  0.5322510861696415
  0.1538112929453300  0.6713484442627115  0.4954281888452841
  0.1629054394866411  0.8498882923636297  0.3365681365716629
  0.9844710280448816  0.8162902603675687  0.1696312956229630
  0.1669724317056225  0.6719705430717579  0.1661435079212029
  0.1517540470822367  0.8798874952998345  0.9916565194682764
  0.9934180101210826  0.5257601976174373  0.8513966010298415
  0.1918690458794378  0.3469940360749876  0.8296053291328443
  0.1854448412738094  0.5236895713263608  0.6720749391776868
  0.9954391157973799  0.5272221257701555  0.4830070626504710
  0.1286612097412701  0.3373603505968381  0.4928990248012948
  0.1808173791610535  0.4854565266885911  0.3236518940560613
  0.0108087343021586  0.4763221275284532  0.1764984409773274
  0.1713166477691274  0.3110379718627281  0.1663340828671149
  0.1825320982133998  0.4985478078740425  0.0188481269120999
  0.0410481536226996  0.1911413817502016  0.8603059013107462
  0.1709243643895715  0.0013951687003260  0.8370115680845379
  0.1653509910377642  0.1673831464542642  0.6525558704278278
  0.9837704710417211  0.1739627340632196  0.5067822006050559
  0.1769967710255781  0.0242732698455411  0.5213849235995749
  0.1371332068667723  0.1792996422569546  0.3359955311762608
  0.9882563582062758  0.1655098662939112  0.1691469079358072
  0.1413849947393978  0.9874130019574768  0.1633184663800631
