Cl O  Li
 1.0000000000000000
    11.7780000000000005    0.0000000000000000    0.0000000000000000
     0.0000000000000000   11.7780000000000005    0.0000000000000000
     0.0000000000000000    0.0000000000000000   11.7780000000000005
 Cl  O   Li 
  27  27  80
Direct
  0.7045017492377552  0.6868864955276839  0.6970694133392742
  0.6678452064628168  0.6567916660532153  0.3246494511874449
  0.6523186064136032  0.6677348318729762  0.9813105790273650
  0.6893840113434654  0.3326341384140007  0.6840635563687835
  0.6599148029087072  0.3590054842514258  0.3328403378690701
  0.6626285399365859  0.3090999898620481  0.9915435839456279
  0.6877068627515377  0.9998033079743034  0.6707642206616811
  0.6396010865326628  0.9728487744325527  0.3434860371393409
  0.6359863871921121  0.0091807172097458  0.9957761333412279
  0.3385311331311235  0.6634513945311350  0.6660411522533660
  0.3302632229570988  0.6786187675380040  0.3489456970959959
  0.2975527728457265  0.6581341217612181  0.9780917738588685
  0.3253568973407173  0.3328472536118934  0.6590630060263151
  0.3393310843460102  0.3220511712864227  0.3095561057526404
  0.3431448909326166  0.3448461979519145  0.9769908515761940
  0.3259878017264244  0.9946847200816584  0.6623129723087701
  0.3300266262214442  0.9762431800059619  0.3324063950026921
  0.3328610300136314  0.9850017050292578  0.0115217888733653
  0.0120284982428322  0.6599502162800391  0.6685588184409342
  0.0063512304729508  0.6675132957098173  0.3465554789789000
  0.0213154464276017  0.6978551266702935  0.0130329966261566
  0.9961996451932804  0.3250853705766343  0.6583102607994114
  0.0000129531451308  0.3598841795886342  0.3566384108083828
  0.0388382960091668  0.3196230183402187  0.9992274125338493
  0.9849901489508985  0.9808923486242875  0.6460164612188408
  0.9838251256126079  0.0206423423520448  0.3472266865901965
  0.9978840258078496  0.0080319076455491  0.0074940036109823
  0.8442441051156033  0.8465512358091543  0.8587022303684579
  0.8338962772489222  0.8333596317778862  0.4753502156418944
  0.8373698444504430  0.8415972791079852  0.1620258853277078
  0.8553777547891041  0.4925584711439679  0.8409965031295445
  0.8293812633622584  0.5048649426578480  0.5014578395190092
  0.8438433805280762  0.5197762859322940  0.1622822389434102
  0.8282285627706164  0.1649988937798812  0.8434751818673460
  0.8123946379745932  0.1700532745403915  0.4922474492444252
  0.8195945632772631  0.1707645829502276  0.1682318330883819
  0.5071357806634086  0.8365629993535072  0.8255824120345374
  0.5028720192307953  0.8346794561417359  0.5149059186222094
  0.4870301188090153  0.8054467229864027  0.1649849538184343
  0.5085263330384131  0.4949352481049656  0.8114837728791074
  0.5184116960674175  0.5127200028640703  0.4987656002438056
  0.4997004327019725  0.4977170815923534  0.1568964243744748
  0.4814522414553529  0.1714217218815720  0.8109781910798511
  0.4890865347212049  0.1617192010851820  0.5143347504588600
  0.4869317392628755  0.1683911156714920  0.1649398227077103
  0.1724274717975137  0.8467449180102787  0.8261242687610948
  0.1638402633166917  0.8351419614648226  0.5137651612264978
  0.1673404395538916  0.8537377199557257  0.1826554182652952
  0.1587959533019025  0.4990724116607154  0.8279273269779170
  0.1710203406471413  0.4818453839088621  0.5033844187215405
  0.1723311367645757  0.4948195003179643  0.1849376617940969
  0.1694330797866198  0.1549305670620323  0.8199215800759202
  0.1462022276831881  0.1605944759118045  0.4965566757923944
  0.1887437195247859  0.1556531911439450  0.1675926798004007
  0.6631805989864465  0.8450638018481776  0.8399540847945629
  0.8243098180014607  0.6594307074997655  0.8683363004580017
  0.8653599184332609  0.8399331668180564  0.6798517782025254
  0.6782097952892107  0.8208485065167896  0.4940351634908826
  0.8498021851038081  0.6836591605893819  0.4640782678080590
  0.8493093157232710  0.8290821053058952  0.3065121899640446
  0.6519404321994092  0.8183048891814537  0.1604978849859772
  0.8461055432935506  0.6719513468321966  0.1614457091606480
  0.8601236164832120  0.8211495560250591  0.0166894212423208
  0.6625122253538455  0.4674622132924154  0.8386315074228375
  0.8636345922035120  0.3353201631787796  0.8242415352575222
  0.8186295530460753  0.5111139871373970  0.6713168465072809
  0.6895942925626628  0.4976207668021204  0.4779455733311260
  0.8185751406551238  0.3217844534057772  0.5180552786609784
  0.8482817150483253  0.5012342110949632  0.3325712920773535
  0.6600736676572884  0.4772338932903251  0.1768331912199758
  0.9286728648169699  0.2764200252643562  0.1484816533759144
  0.8354035490607665  0.4662509303125988  0.0148924598752006
  0.6517214466170760  0.1680286902817625  0.8262183568537813
  0.7925445605131135  0.9999858040645704  0.8605511180693257
  0.8082684459649357  0.1714779156305604  0.6838101177025964
  0.6425167242998827  0.1516172613557354  0.4951873782576053
  0.8212402142202618  0.9750593587857711  0.4840384655845594
  0.8232631082130261  0.2000532264566798  0.3494182023153360
  0.6637344798797542  0.1520704044277746  0.1647574258146050
  0.8134232912701975  0.0113675448509318  0.1735561401982749
  0.9916645189874425  0.1715665179502011  0.8961052636173774
  0.3269426096343088  0.8224744005797409  0.8085524672582430
  0.4802488126450636  0.6560327265585916  0.8343907417030668
  0.5161722051315062  0.8447640478730258  0.6739631348422094
  0.3264395784158783  0.8232143119316954  0.5011293813882144
  0.4801317693249443  0.6697879279815513  0.5042124668109214
  0.4773379521562160  0.8327832814820654  0.3486649307781033
  0.3361013607685222  0.8449760294794406  0.1603825521744276
  0.4928199372836824  0.6575599576775334  0.1340844343222207
  0.4973958412268872  0.8420641568553447  0.9926637469193734
  0.3373305787849395  0.4850572129351592  0.8230587135208891
  0.4831456246966639  0.3292667442000319  0.8008709275189980
  0.5404712647760476  0.5482263551427825  0.6551591194026053
  0.3699019817558934  0.4968690741958750  0.5334796125646986
  0.5255937268188965  0.3517370171497378  0.5002358683909701
  0.5066042072309748  0.5153702182837626  0.3442822232111037
  0.3258346656633490  0.5000309442263137  0.1951559970771039
  0.4890996115086136  0.3237186033799661  0.1876158323893485
  0.4738787167898119  0.4763434571842359  0.0031001606584973
  0.3427121019004218  0.2037726817954350  0.8385289983648847
  0.4628641347069271  0.0034652691679584  0.8340940646190702
  0.4483477266063876  0.1737285400542036  0.6575354105386839
  0.3142175189817109  0.1565117955964736  0.4778010809030714
  0.5020150645587214  0.9983665638420003  0.5410659711051888
  0.5207348298602527  0.1478669763773154  0.3143016638061738
  0.3415932066260747  0.1886303490146103  0.1551438109784302
  0.4975277022070424  0.9952069983170054  0.1692034120773315
  0.5009271001375639  0.1685051934353337  0.9814032134408013
  0.9882441017810630  0.8620773905188587  0.8618877843637078
  0.1813655774475866  0.6736080098066977  0.7935804768397158
  0.1302257942441973  0.8460135895652302  0.6709657570323329
  0.0066390583319542  0.8397181083204870  0.4860583636569886
  0.1539191010639530  0.6488497241572744  0.5025885565330571
  0.1590656772242356  0.8519702888996452  0.3381907074616082
  0.0176545658860067  0.8521770883735883  0.1472097941014840
  0.1806269211433400  0.6662637135322032  0.1750529060462413
  0.1821387273210969  0.8461092970743143  0.0085956204714710
  0.0041893877066626  0.4849929221041839  0.8821411774789505
  0.1397582155907493  0.3413793108430328  0.8415343113151084
  0.1799525354273637  0.4943426631597612  0.6665492036626283
  0.0218160080360262  0.4893543748309682  0.5319512073688687
  0.1461973896767010  0.3176988277768736  0.5084556211698783
  0.1940701217546430  0.5061238364797469  0.3369198097156637
  0.0035650881360355  0.5340456925468260  0.1635918508626040
  0.1554980624154381  0.3161857867941137  0.1677173040135302
  0.1719585697796577  0.5009136476191056  0.0029214337045440
  0.1679018203693896  0.9922613798385604  0.8029248333357717
  0.1597672792570400  0.1643077673468972  0.9781165380351452
  0.1433484819864049  0.1567431089861317  0.6706461652063135
  0.9755275333072562  0.1451641704101189  0.4942509102404211
  0.1919153870244286  0.9937239184353501  0.5292692513877884
  0.1453854952658837  0.1634667942903948  0.3237098657936958
  0.8203829865145834  0.1732276950479096  0.0112706047384439
  0.1898781409538426  0.0008833559558938  0.1928533489016954
