Cl O  Li
 1.0000000000000000
    11.7780000000000005    0.0000000000000000    0.0000000000000000
     0.0000000000000000   11.7780000000000005    0.0000000000000000
     0.0000000000000000    0.0000000000000000   11.7780000000000005
 Cl  O   Li 
  27  27  80
Direct
  0.6918904173213912  0.6975013291734554  0.6493157589176565
  0.6914015155110278  0.6654703659397109  0.3255854333240660
  0.6710703094378920  0.6451637749958150  0.0235865978590287
  0.6790505100462204  0.3687782213705692  0.6617061162009198
  0.6748049670480774  0.3366360244730310  0.3519312733532327
  0.6644297305588709  0.3128375264369141  0.9944221376542886
  0.6754669035004990  0.0103924165026668  0.6830314820003960
  0.6606840609171836  0.0253612275513452  0.3380919432484301
  0.6529445055855029  0.9971060566857407  0.9858431787083252
  0.3609830001963339  0.6819724214558753  0.6620945737092369
  0.3313981856735093  0.6709601470413568  0.3519249576292829
  0.3210617139643147  0.6544613708433971  0.0028912157184759
  0.3584265489860489  0.3345953371426008  0.6817493090677850
  0.3354562002528378  0.3323680525577845  0.3438940288023071
  0.2918856198974791  0.3289389585790762  0.0128827906389811
  0.3721301315113428  0.0119241528886328  0.6457470914882006
  0.3459873662984052  0.9883297190309503  0.3375030019901196
  0.3303923661491079  0.9700657865508809  0.9910043555521497
  0.0019659267321811  0.6694687455102067  0.6381982224373094
  0.9977313317163565  0.6834130542829684  0.3463421410556086
  0.9868593702439016  0.6653119060452291  0.9956722651197678
  0.9956962231488983  0.3431876366637219  0.6733081415819474
  0.0126423833693341  0.3051648327597397  0.3195482692374069
  0.9729272766784184  0.3256032644410858  0.0133097194080880
  0.0060080664445777  0.0041371518194322  0.6827365053036166
  0.9804012198872124  0.0063834227963385  0.3373912622587016
  0.9994739597655916  0.9870934843869240  0.9767503934889231
  0.8313057320577923  0.8222509661028902  0.8527453487940539
  0.8395490473452821  0.8291253077388702  0.4948406409085812
  0.8407205331671337  0.8296484602060380  0.1501423648357647
  0.8362098917047424  0.4991710791052999  0.8191813245423373
  0.8309711606300975  0.4987234724130691  0.4931513466936734
  0.8307770735748736  0.5041283151246734  0.1550572429949948
  0.8412060342030625  0.1658600330711060  0.8359239848497397
  0.8431725725051986  0.1596840141497257  0.4972922753925469
  0.8266462662284837  0.1609755898187939  0.1645683082878066
  0.4747085409715495  0.8217182590789779  0.8079238704852584
  0.5074636262473740  0.8402660828445193  0.4993432257743955
  0.4948697892937822  0.8206768123938348  0.1826235966774430
  0.5261284933330347  0.5144985719084579  0.8388728611385153
  0.4858101666857924  0.5023602767874439  0.5044689215845045
  0.5007941003002503  0.5090847819212582  0.1891322943336038
  0.4981991069797080  0.1594444619791459  0.8509053678833717
  0.4966396899598686  0.1774329595637436  0.5101151787955455
  0.4937943753497043  0.1722708471273988  0.1618425167291200
  0.1550337704686340  0.8288947838147057  0.8219788663687795
  0.1645564449527444  0.8475470599378772  0.4855328022522858
  0.1742418606634372  0.8405770917636328  0.1559472641256322
  0.1464022304639342  0.5093565199927355  0.8238813567524000
  0.1669125642333233  0.4938106488883933  0.5054522717063924
  0.1383156848050615  0.4770052766810029  0.1809692008858983
  0.1600829488539678  0.1900112906053307  0.8287740995137485
  0.1681639378903270  0.1614131257653035  0.4998912362832626
  0.1641545462883292  0.1414375232903233  0.1629800656560942
  0.6498619869585351  0.8407795997841229  0.8019847418187546
  0.8536097921570140  0.6600418797487051  0.8084893706912171
  0.8700736699316108  0.8141193905468184  0.6717432590317671
  0.4887104199972372  0.6825803503714450  0.5149645211974450
  0.8401238591955258  0.6766551486859583  0.4815578232487319
  0.6787802699349107  0.8487706909677234  0.5023446116398556
  0.8288876194932522  0.8377874850775375  0.3274669927507505
  0.8186950936590779  0.6709045200881074  0.1530291769911114
  0.8006249977307583  0.8418731107064411  0.9937370258350179
  0.6784843620737029  0.5087025996514809  0.8322433752618162
  0.8202973442426275  0.3079021120534950  0.8452457504870526
  0.8388585281934473  0.4974543357824568  0.6690990354527451
  0.8126987186229275  0.3373716241288276  0.5003705835368817
  0.0045188338028693  0.1339868718439320  0.4904970017621680
  0.8504877192845406  0.5248768852888193  0.3146299801823899
  0.6392893840959003  0.4692967736587418  0.1546501419554030
  0.8476186802241549  0.3398498575271199  0.1650035770513599
  0.8615747297657975  0.4870641601769847  0.9927779808759500
  0.6650677806194315  0.1551911660250005  0.8472562559443769
  0.8453075301126602  0.9924286972541180  0.8265895067937077
  0.8320128502277004  0.1725817750756923  0.6431625434034214
  0.6873672253819205  0.1453965915277731  0.5012119108407209
  0.8552635401819997  0.9954573386566471  0.5008285949794654
  0.8363733717900560  0.1454602750775993  0.3453647018035712
  0.6736648979043347  0.1950302871175586  0.1699826751920979
  0.8346969519355073  0.9830249929426059  0.1887194646085064
  0.8623776364156094  0.1223789457144065  0.0085589868130974
  0.3279569055864109  0.8198722863276254  0.8506161401148029
  0.5093880192377688  0.6684219142655422  0.8328610206757702
  0.5075413987198573  0.8264223398300339  0.6623961090424257
  0.3537095938746339  0.8785982357658076  0.5109074782679548
  0.4942419820419351  0.5097225485839492  0.6852748595356610
  0.4834059406168594  0.8220482961407604  0.3362967796865448
  0.3242887857474521  0.7841902273697997  0.1400270547996873
  0.5010793200132355  0.6546742836142402  0.1231898205746789
  0.6515686898997144  0.8090446253824063  0.1595142817746332
  0.4184356430066807  0.4674464284831165  0.9428478957852168
  0.5429440678637285  0.2968625707153860  0.8084014363808402
  0.6587403563862503  0.5457064262728333  0.4793205185249570
  0.3384672014031572  0.4984510865750330  0.4960123291574823
  0.5277328086724911  0.3511479589357728  0.5174372080945764
  0.4741932426739090  0.4913382453891313  0.3458679354490512
  0.3183889886566991  0.5103682908723971  0.1790331278547376
  0.4912072361986894  0.3292228017881238  0.1667135491893915
  0.6823748075413143  0.5241447471355722  0.1734868898489387
  0.3308004590812431  0.1888310396922286  0.8515797738420531
  0.4932329641701489  0.9569077778188440  0.8764847786170771
  0.4847177488695422  0.1817961936485649  0.6807108583029768
  0.3322270839564988  0.1851020905248439  0.5307674341694584
  0.4877765025608787  0.0025377513454836  0.4691715145064619
  0.4901143325575200  0.1868111416197995  0.3600234161200287
  0.3536249793678717  0.1256210679486868  0.1351001828377643
  0.5125764072117142  0.9771629472314474  0.1925325829431440
  0.4902727519665919  0.1570759440417748  0.0145530971966298
  0.9819121050218932  0.8519900097948584  0.8094730851817942
  0.1314199365085787  0.6688910187104479  0.8267601123111697
  0.1455235148840209  0.8016098037312991  0.6385224700854712
  0.0027160342397399  0.8556043852521298  0.4836898254212684
  0.1779676924542570  0.6773466394876317  0.4800751260807176
  0.2058888197839572  0.8503497838967907  0.3374928199095211
  0.0019402706850968  0.8471119227519059  0.1526402842646375
  0.1531211890965876  0.6688001694505559  0.1713856768306571
  0.1420598564865814  0.8570608883599170  0.9891153537684672
  0.9921866239325362  0.4749352171856655  0.8201179949865712
  0.1741806062382070  0.3528057555017519  0.8208345867424037
  0.1788344243528299  0.4953421714607881  0.6626113699670449
  0.9931721855699418  0.4913859776874435  0.4913241186871204
  0.1719171074542047  0.3341347751191912  0.5136308103379877
  0.1345791547446667  0.4881493715902667  0.3304426501381975
  0.9903310902985941  0.5029520925098598  0.1516464484215767
  0.1710306186755840  0.3168069994247170  0.1837156298822988
  0.1342656357301375  0.4896101661515067  0.9877953826450064
  0.0021297308589204  0.1999600537862919  0.8404290393255600
  0.1761429138150050  0.0139825627072617  0.8041337883488733
  0.1278182026205593  0.1907150080008042  0.6650295230169951
  0.1638927271422858  0.1672883886976364  0.3170548538103892
  0.2002820560903069  0.0100394697595381  0.4932981063046843
  0.9899212742061986  0.1992151222435056  0.1695526290464260
  0.1453785265096946  0.1439046232008838  0.0194394837486188
  0.1675952494583360  0.9907619591058041  0.1822594304150863
