Cl O  Li
 1.0000000000000000
    11.7780000000000005    0.0000000000000000    0.0000000000000000
     0.0000000000000000   11.7780000000000005    0.0000000000000000
     0.0000000000000000    0.0000000000000000   11.7780000000000005
 Cl  O   Li 
  27  27  80
Direct
  0.6506115623365728  0.6769053642988204  0.6590661614048098
  0.6619615660407610  0.6428590778439696  0.3346753568335554
  0.6690492253016836  0.6511800441477127  0.9973634836011723
  0.6882102815714959  0.3327713637483121  0.6761781701070406
  0.6367955113424821  0.3286307184473082  0.3296359961601307
  0.6788342249994617  0.3468429181644964  0.9940829073440306
  0.6505553281021744  0.0146696449922004  0.6707534490591586
  0.6885619378421830  0.0163304842897698  0.2922905131643448
  0.6531320625028363  0.0182028003912988  0.9759979241713767
  0.3643029942510838  0.6741377007049095  0.6665487963250490
  0.3668082719032121  0.6352960388996014  0.3551164807946623
  0.3295697513604720  0.6598269989722449  0.9845738410183343
  0.3358252330202005  0.3235832202064866  0.6756189451396217
  0.3290598376223528  0.3130332891734148  0.3217958548274691
  0.3236974843484743  0.3165909445713686  0.9939572317754121
  0.3448796734957188  0.0010403775486400  0.6562860283046393
  0.3299832086094234  0.9638220310754456  0.3657961675665727
  0.3159352774299357  0.9780064689358784  0.9913274349191863
  0.0157710370508904  0.6642306779815904  0.6508537364850997
  0.9971582187040841  0.6592114183141979  0.3329856780072533
  0.0015351450810618  0.6642030669320153  0.0141184522639253
  0.9929197679274016  0.3281655613298710  0.6735990065817825
  0.0102342359411133  0.3587802032251878  0.3422731727450569
  0.0114557174487260  0.3582946212184390  0.9864833923104810
  0.9961331733543479  0.9702169495476630  0.6830890700681911
  0.9971107685384721  0.0065746119466857  0.3611702236566893
  0.9883837250331993  0.9958425579296104  0.0234863737989010
  0.8215588576292813  0.8558708355143754  0.8356493496436163
  0.8333975202313733  0.8411131748560391  0.5125603129433808
  0.8399904072974920  0.8257726862362922  0.1907448662688506
  0.8389296085864002  0.5187013376077704  0.8415828913235490
  0.8354198474283986  0.5030847789776832  0.4948216305807811
  0.8457570681176769  0.5020198507547783  0.1667321396860677
  0.8252678070041584  0.1755512134894791  0.8182910681927567
  0.8288972430339252  0.1816711702394533  0.4843033186528678
  0.8413272355335140  0.2019935302505186  0.1503796878809620
  0.5057737127644262  0.8334972214808870  0.8367789735515957
  0.5028331359846870  0.8257025655062863  0.4932005137962023
  0.5031279102544167  0.8307772496998787  0.1727218953576940
  0.4921513844568700  0.4914940895114371  0.8311281819746422
  0.5137988926631913  0.5051003046258394  0.5148639732540377
  0.4746148052606611  0.5022904147493674  0.1425565605418251
  0.4999187532651753  0.1743066110172868  0.8127755788558028
  0.5144311533101313  0.1568983402065113  0.5197219795336628
  0.4755105854408616  0.1386774968543021  0.1543712861452938
  0.1655936894110684  0.8282212438291028  0.8306256770665408
  0.1639749005375608  0.8220668947233896  0.5069384279491203
  0.1634633268976342  0.8510907231634632  0.1584348775898408
  0.1708853652805546  0.5066176168193475  0.8127673198321762
  0.1837285518739301  0.4959795490488492  0.4924829503905314
  0.1756583319566133  0.5133777895993136  0.1769961627541853
  0.1503096576954745  0.1550806667567027  0.8438222203178206
  0.1597002687723801  0.1772563172569661  0.5248224124479731
  0.1455047581523303  0.1865371723875405  0.1708018950342771
  0.6586296168031895  0.8404699426630069  0.8520955757794815
  0.7886598467211410  0.6712336822503410  0.8525764614786782
  0.8201115042241391  0.8323749659175156  0.6782184323406666
  0.6491914151269065  0.8313913323977580  0.5073765610554263
  0.8319064425835025  0.6703294406194641  0.4758058359618122
  0.6780510752296975  0.8227748226014964  0.1666974538111067
  0.8426335377704457  0.8338387563990906  0.3449707965797818
  0.8081517092755244  0.6648264207887697  0.1796640298126087
  0.8429847891870335  0.8254858066214994  0.0165535383365805
  0.6651668769160588  0.5012885223097298  0.8455406640278811
  0.8349608238505662  0.3385103730335120  0.8081126312812396
  0.8149492096034499  0.4869804521287108  0.6540870632640720
  0.6716161217477317  0.4998716544182682  0.4892654938922534
  0.8161388328889515  0.3211738929759020  0.5135745129476386
  0.8601520604738241  0.5359850044481215  0.3239360148101072
  0.6058557108772801  0.4694012013104313  0.2155007835217926
  0.7969586270202406  0.3535332536123263  0.1744768366648099
  0.8422018823297291  0.4685204412173163  0.0023817195886488
  0.6496546896727816  0.1512690160181752  0.8151559590182844
  0.8412772765376555  0.0119244014592096  0.8141754023896820
  0.8165213390420085  0.1847525147895331  0.6498516011330026
  0.6542045210119890  0.1433209304612769  0.4607382999758406
  0.8542930119481698  0.9929096999463088  0.4965826649420921
  0.8253235958990475  0.1953091259152440  0.3058193606603633
  0.8729402678805094  0.0024526737517017  0.1655100066163888
  0.8541392483612403  0.1680758254576181  0.0034018358397253
  0.9801488722186424  0.2335249440110869  0.1423745280174092
  0.3241804145608725  0.8640848393650731  0.8100685624059729
  0.4743248487547135  0.6755039213485438  0.8387978190033667
  0.5256544781666360  0.8225214649061290  0.6601387413701925
  0.3217681318953626  0.8235735187686751  0.5199569973383299
  0.5173557788383564  0.6617128903377925  0.5168364629114340
  0.5366279270730276  0.8057394527802708  0.3232561635637898
  0.3049291972831371  0.8753077188820685  0.1535983386988331
  0.4741334742219553  0.6599199939588634  0.1516827411637466
  0.4837854388626900  0.8321065476496528  0.9868209761057090
  0.3335323823139961  0.4655948440392528  0.8203686984597517
  0.5303381947564950  0.3260868581995127  0.8287010006782767
  0.4699460682724774  0.5147670464412003  0.6638155858149920
  0.3446018626127513  0.4970236677710481  0.5005664697650115
  0.5139156121000311  0.3490018836200489  0.5220317531412197
  0.5025943935223059  0.3377070615296008  0.1256556933737530
  0.3350352412161576  0.4935560924101977  0.1849650274477322
  0.4851161942872219  0.1516335264065164  0.3053312685581986
  0.4809433225999104  0.4988316652078826  0.9827672390629736
  0.3141082923358422  0.1948384425393509  0.8361343648546259
  0.5110960462105849  0.0053759313158802  0.8360202769694319
  0.5447735915517565  0.1613481928258865  0.6759435571564728
  0.3259081091871027  0.1988543725350530  0.5161667937457152
  0.4894541654762444  0.9937873578448877  0.4957290705590428
  0.3170412376158088  0.1519727536563537  0.1796190707648770
  0.4633565010099734  0.1408088512602797  0.9897442592895609
  0.4775864343498196  0.9876568306074136  0.1442546906974510
  0.6727809274769438  0.1521309605170235  0.1314030831388092
  0.0019781384924597  0.8260930067996903  0.8404596641103390
  0.2046063109811756  0.6701140582386149  0.8536919154931807
  0.1629254681053080  0.8003764314971282  0.6698681141147211
  0.0106330400020067  0.8252753634606624  0.5221584319889034
  0.1631486742916269  0.6417087658915136  0.5178127280865834
  0.1691937937613381  0.8316100345822218  0.3451075158091291
  0.0223948511746915  0.8288993744454981  0.1717525329449383
  0.1847032583607971  0.6728516816583547  0.1487086121005246
  0.1422277071306294  0.8442841541037128  0.0002260951282926
  0.0010322124667450  0.5153635584711683  0.8288592176602989
  0.1378046052458681  0.3352008527130440  0.8084659069683242
  0.1895249087423016  0.5211353204530048  0.6591633668740615
  0.9855238432664731  0.5041999091089066  0.4944562092707165
  0.1484623286828893  0.3331844768712791  0.5405688482731286
  0.1948303395298128  0.5108945764955993  0.3316759749958871
  0.0182884577956608  0.5047745185321003  0.1676705813669863
  0.1891315322566775  0.3397481334714254  0.1950916835199436
  0.1702501087132796  0.5143446621593584  0.0162121704206930
  0.9918795193573584  0.1409093664117934  0.8190402102181761
  0.1520709147265401  0.9953384740905217  0.8573185175442521
  0.1694873332260648  0.1083893596687508  0.6764328638209356
  0.9781287871441048  0.1753126329687378  0.4970783683013245
  0.1715553178441431  0.9905752530117353  0.5092688491157433
  0.1439967980885171  0.1381315915867516  0.3470563215017141
  0.1619442738314991  0.2062852266159864  0.0110453566161196
  0.1558442561459175  0.0296555484748853  0.1539827679088618
