Cl O  Li
 1.0000000000000000
    11.7780000000000005    0.0000000000000000    0.0000000000000000
     0.0000000000000000   11.7780000000000005    0.0000000000000000
     0.0000000000000000    0.0000000000000000   11.7780000000000005
 Cl  O   Li 
  27  27  80
Direct
  0.6415702527900845  0.6597285631143675  0.6661664136636213
  0.6739492286076217  0.6721757214277684  0.3318707928238890
  0.6739080954311287  0.6463501594016640  0.0026390598575717
  0.6542931572305460  0.3409126399764403  0.6660095731855369
  0.6836898562961122  0.3398729746493342  0.3359798999905544
  0.6604657247707294  0.3212329048772581  0.9750813036314738
  0.6808927193237693  0.9946680768082939  0.6716798382446686
  0.6499315830475320  0.0230284227593540  0.3096464687395324
  0.6728095238325686  0.0322985264832528  0.0198657226081510
  0.3688248233428281  0.6486122007109085  0.6417158981005167
  0.3464065539021824  0.6780819354559957  0.3246730334906507
  0.3270448519407370  0.6818572809031650  0.9964832763664364
  0.3440317607262715  0.3283603612961458  0.6702863304347391
  0.3174626639040236  0.3456708092351683  0.3267059071369637
  0.3488417108243050  0.3226208459433219  0.9979519794994732
  0.3209169195650058  0.9646962900856290  0.6719860698854097
  0.3505683325871720  0.9881881415055530  0.3347806209347833
  0.3288464121973919  0.9986424788947561  0.0039364110234008
  0.0137121031916222  0.6715873064797870  0.6800840425512363
  0.0283999518212036  0.6732703659415650  0.3649121706760621
  0.9881935369683715  0.6658725884405475  0.9834246899961372
  0.0033666744017720  0.3452474937888979  0.6756109715492640
  0.9875383033816322  0.3378135223313995  0.3324660902915591
  0.9835810784955034  0.3155937326129555  0.0073213284614412
  0.0012773117476410  0.0003340358645284  0.6717971244772475
  0.9833920609727049  0.9850239195258311  0.3476913371919287
  0.9976507829182292  0.9961649777130575  0.9781824253043064
  0.8116802693199471  0.8140387435633715  0.8372960957280827
  0.8572151815226005  0.8406905318354098  0.5101424048412895
  0.8442328060898715  0.8281392450476588  0.1630708639167870
  0.8377589461289588  0.4890783092743451  0.8188410645221099
  0.8263419795567398  0.4991795405091179  0.5046528666521031
  0.8483126018197448  0.5233982771003503  0.1812917882398161
  0.8319488039785049  0.1735017452414704  0.8268586331638077
  0.8197197000830089  0.1689124608702824  0.5111279006899039
  0.8362452776223451  0.1724678490852798  0.1661869955553527
  0.4821208139186435  0.8192048438125947  0.8515289035320343
  0.5132946200532642  0.8405734480298807  0.4917685873676445
  0.5162198933480483  0.8444778609639193  0.1666434887950639
  0.4829751370390716  0.5008563247323561  0.8236591521875404
  0.5101162319755725  0.4870070352167098  0.4940745553466676
  0.4898591951734359  0.4909610427779177  0.1515637262152923
  0.4950217731919949  0.1669783716242084  0.8060688893377587
  0.4758137943320689  0.1669973592814675  0.5015247209681396
  0.4837769910682252  0.1835823896452917  0.1452786598422545
  0.1589838424930462  0.8300244076758274  0.8114110201493752
  0.1743762738937385  0.8169008191332485  0.5265774165186031
  0.1853770302091308  0.8372800409025664  0.2003204774618490
  0.1747852979903021  0.4944655813180381  0.8397506451615635
  0.1660731818984811  0.5042009863886469  0.5162561470808389
  0.1628281649573905  0.5225252092351226  0.1541116350040811
  0.1557912237937627  0.1713392575552535  0.8458939822357748
  0.1529302210872489  0.1835386046744480  0.4899041532693622
  0.1746347732361674  0.1517734382782731  0.1752464461003503
  0.6488571002678825  0.7930201762003755  0.8592546533389273
  0.8366489171593874  0.6578732382333202  0.8679139966988992
  0.7941235283895908  0.8134415837668444  0.6713172104278894
  0.6841227262991268  0.8130947857453494  0.4681238934038671
  0.8257045772627382  0.6644089599006121  0.5200870789958473
  0.8121249610626624  0.6757625263208745  0.1673472365545949
  0.8767340883308198  0.8273021687118626  0.3350286547987441
  0.8049710271856779  0.4845681941222831  0.3341503845583400
  0.8045259305888629  0.8561033273972990  0.0092497295074194
  0.6557680002290330  0.4980923857961592  0.8390562394103749
  0.8446065673943826  0.3227464519276422  0.8173520111447361
  0.8103164778009090  0.4766727294769466  0.6571999074984798
  0.6836870223174168  0.4952161403328053  0.4966861476852827
  0.8535338431972982  0.3345384753374903  0.5115137266465754
  0.0199119551248508  0.5377097885412137  0.1907914670110839
  0.6632497039848437  0.5194969815428763  0.1645869008198821
  0.8814765492504932  0.1601984116001370  0.9814954008014786
  0.8272508770097589  0.5072905494769433  0.0084677626707268
  0.6504040072960522  0.1543852532866429  0.8446146432818590
  0.8171794025512877  0.9872613292586381  0.8075839343483103
  0.8096766463823114  0.1792814828490639  0.6771971494250698
  0.6502723082575369  0.1677305500553729  0.5697271712804024
  0.8467369906359318  0.9872136981738505  0.4946058858666419
  0.7968639048172063  0.1541857310651355  0.3306690239154069
  0.6772033244018902  0.1795649819321270  0.1623632396792549
  0.6580571262775236  0.8528895249501800  0.2050664606121868
  0.9006144883512330  0.0287653419852660  0.1539252502980973
  0.3219642163918845  0.8209098463665570  0.7966559505572745
  0.4324474831125325  0.6451458803977661  0.8265902148959450
  0.5003712318628094  0.8524620696278312  0.6652636699929120
  0.3512949242392582  0.8112531854182700  0.4983212724216987
  0.4948320990464539  0.6351550123904735  0.5086635942726289
  0.4798874362796322  0.8403960409635497  0.3301023293898552
  0.3314453730881076  0.8796901272248706  0.1676037116265270
  0.5188244412253349  0.6606182299976681  0.2058346105375703
  0.4802211170283085  0.8031757793406897  0.0187125741466617
  0.3391548072747972  0.4748938410498548  0.8239296756967196
  0.4884670638674439  0.3200483220252930  0.8271697230537407
  0.5224682495756283  0.4820757503451040  0.6487255014910864
  0.3264589268454667  0.4874180026129502  0.4935186906682732
  0.4990154564549382  0.3330709601982013  0.5048165086790565
  0.4886442685067252  0.4623124736025227  0.3167440874112988
  0.3240912388589991  0.4958810322201521  0.1431801188610285
  0.5202229287406865  0.3210643438729977  0.1290641317074417
  0.5067557000385876  0.4897566828032000  0.9760114382123416
  0.3118640580204750  0.1792075564905243  0.8084463545507254
  0.4699496446447630  0.0005073349269201  0.8455743094389356
  0.4810685576290478  0.1941876237483334  0.6563540053433179
  0.3158599274955548  0.1745803575329331  0.4750357245294461
  0.5128509809312071  0.9975861759619207  0.4817811606201963
  0.5261163088939649  0.1823287791693892  0.3390395038754995
  0.3352170748483826  0.1849603510578067  0.1426298715332625
  0.4803358121946515  0.0129779134173832  0.1875216223923513
  0.4779504523267479  0.1571945055179085  0.9860160548118140
  0.9852861291258900  0.8331953869235010  0.8175400253884696
  0.1779576537419136  0.6670592158057143  0.8547144575272843
  0.1732910219950466  0.8432824077793870  0.6599374094619896
  0.0141015690396805  0.8131874163632785  0.5096724906881850
  0.1986326416735044  0.6732842524371723  0.4976863802231132
  0.1810020755981336  0.8606210942918385  0.3495688075922099
  0.0150519450603461  0.7695161285507088  0.1467230679338238
  0.1748642647823784  0.6732752241907569  0.2020753985262599
  0.1966720749693336  0.8410553863497353  0.9877871308199576
  0.9859572127506184  0.5446872060308857  0.8443050918375035
  0.1496996068307423  0.3229189400166662  0.8501447883372093
  0.1298989620547920  0.4776264037933529  0.6890904268451631
  0.9883756631152980  0.5158799340485493  0.4884924675103721
  0.1280440723919015  0.3539987795148302  0.5153122702336367
  0.1435128693970819  0.5030650872421275  0.3374992971826739
  0.8481458325377863  0.3298990497860990  0.1666653711591333
  0.1444198437931292  0.3086007889685737  0.1637387112390590
  0.1749984536736048  0.4859931590957315  0.9914156850268893
  0.9949976889226321  0.1591756894170882  0.8082593119568300
  0.1285208184579323  0.9915828747577489  0.8208617723027379
  0.1446122608251932  0.1975515969451627  0.6768920513758069
  0.9939784086320124  0.1621163269249423  0.4910570967734638
  0.1781490485173768  0.9967849317442542  0.5332964561220763
  0.1418352653442926  0.1882950533032537  0.3247640649348875
  0.1377842041341202  0.1424799516997993  0.0133187776261241
  0.1576110530916503  0.9956743445188347  0.1768086566134751
