Cl O  Li
 1.0000000000000000
    11.7780000000000005    0.0000000000000000    0.0000000000000000
     0.0000000000000000   11.7780000000000005    0.0000000000000000
     0.0000000000000000    0.0000000000000000   11.7780000000000005
 Cl  O   Li 
  27  27  80
Direct
  0.6452296920464000  0.6734783817525571  0.6708733014499574
  0.6591370376398918  0.6877258857603148  0.3659663838073294
  0.6259150341312978  0.6655897186560894  0.9828574055269382
  0.6469212534442641  0.3539480125855239  0.6629516427443936
  0.6709612064652276  0.3081239940705315  0.3412074503913473
  0.6636820512153170  0.3300494346160501  0.0063057262749997
  0.6531200960154947  0.9946474088835201  0.6585698663418225
  0.6598537508519541  0.9942215978912781  0.3443663245014507
  0.6778609729386463  0.0245480671690223  0.0032830849367397
  0.3409566949525191  0.6617995960342945  0.6583875605408895
  0.3313373817948961  0.6697891082869076  0.3464760596985236
  0.3536504903832381  0.6407349157893835  0.0158147710928220
  0.3272404809793258  0.3245878516024231  0.6660737561022769
  0.3321348431570719  0.3029842498231753  0.3162348349817333
  0.3491258814544197  0.3406599723077930  0.9793430783737973
  0.3389826263641353  0.9931090398487546  0.6570132428152686
  0.3380681014391353  0.0032652274971747  0.3301255208290372
  0.3394670545367010  0.9843469002374529  0.0175813329777579
  0.9963049514814533  0.6926937694425008  0.6711123273102080
  0.0356114594889020  0.6760502579040270  0.3280236398014916
  0.9855261276434284  0.6530383913829284  0.9871998427627441
  0.9981021252388296  0.3309171786498712  0.6943126534145494
  0.9715828752868323  0.3369097278147831  0.3332886256644788
  0.0058032028257287  0.3419959503502065  0.9847216776835810
  0.9811890079131834  0.0232482856134281  0.6665646012123173
  0.0152921042543552  0.9919538000628084  0.3513836606053179
  0.0154111655191260  0.0118030450430462  0.9742519457172504
  0.8258632836074672  0.8343828257716175  0.8370666379665711
  0.8343390661187983  0.8440481505976305  0.4854583020048602
  0.8503014106351322  0.8511719633296242  0.1593212807323308
  0.8244215981597161  0.5096197578560195  0.8256757439983494
  0.8341818207866146  0.4877759358969281  0.4918083575821945
  0.8417569648685530  0.5012433265406666  0.1683323916978671
  0.8181214206074204  0.1765073433643146  0.8143723794864053
  0.8190891838464838  0.1698268661138037  0.5079553965386473
  0.8562938181011090  0.1532411677407154  0.1612427486518578
  0.5044677516047728  0.8395777516327138  0.8434551546833428
  0.4739872581152724  0.8371855497305314  0.4929306941163860
  0.5281921208553004  0.8303634342733661  0.1842664267913045
  0.4884180395738014  0.5128681047220773  0.8073561769740163
  0.4852628901214119  0.4994971503248016  0.4886529247319354
  0.4933479884268794  0.4948870362102025  0.1831446975382620
  0.5178418233786134  0.1714156957839601  0.8336041637673722
  0.5066409274392123  0.1671964480595692  0.5167907299756027
  0.5151857375744807  0.1663632482017741  0.1798625655976143
  0.1740150868467995  0.8200600593867925  0.8451424246277538
  0.1699940354467407  0.8237129769543212  0.4970283843974499
  0.1736101517766392  0.8172863229813917  0.1629720930585428
  0.1748612521571259  0.4969774598667367  0.8057403232927287
  0.1537477667505395  0.4943912113947403  0.5123079424752460
  0.1746977923145172  0.5062782135762937  0.1636064184613893
  0.1872498888104670  0.1613176831392770  0.8386280792569073
  0.1395524585575394  0.1616857056369299  0.5084330434050491
  0.1760907940568227  0.1588988418373578  0.1705542006309898
  0.6508290266673274  0.8202840246745478  0.8500500660199581
  0.8255188337397484  0.6729111811593811  0.8103070775332885
  0.8355874742195245  0.8435362530744245  0.6696944877689079
  0.6689146689930617  0.8558028464595194  0.4802372225689465
  0.8020754332341630  0.8548998598763508  0.3150062242464650
  0.8767785448487150  0.9967061619526364  0.1140738149402090
  0.6778112163698373  0.8488942541667353  0.1574754699226180
  0.8287799335099355  0.6635713185438279  0.1486205617899596
  0.8242915590230081  0.8289095222318147  0.9920311868695896
  0.6457562452880020  0.5001634187160861  0.8281779042739128
  0.8535495550741402  0.3250321992191543  0.8463817639966547
  0.7841399917792838  0.4885426890756688  0.6632913963045600
  0.6748530284367770  0.4953843185004224  0.4740488252334787
  0.8069497956194017  0.3245684995764747  0.5014707674586922
  0.9803199807550227  0.4750307644810029  0.5290078097043484
  0.6586909289078287  0.4336376716562416  0.1716594320794841
  0.8329847481856849  0.4663862387810668  0.3212666046407954
  0.8244230556344738  0.5046855175494885  0.9810166705754961
  0.6671827436414934  0.1871419901176734  0.8454029077552696
  0.8191523410859810  0.0359850411247633  0.8547807861707509
  0.8161220891232378  0.1475977445083698  0.6558730927007063
  0.6641838678714493  0.1535504560299066  0.5061526622051044
  0.8335220705463293  0.9955570445626859  0.4742989440960513
  0.8445386364143010  0.1933907714420577  0.3169128643846036
  0.6846151943633522  0.1567350788607281  0.1836838619850586
  0.9982023053520683  0.7872801871616483  0.1641713721143138
  0.8353846423157549  0.2829634049025938  0.0644624470540021
  0.3340298639825595  0.8506574747401824  0.8348927333947530
  0.4914522186213080  0.6686780671820878  0.8387434626752192
  0.4870528715508256  0.8335297172134873  0.6650884626807122
  0.3335426018312984  0.8277940682173121  0.4787016109701484
  0.5149293839587784  0.6686591604956487  0.5114396923738006
  0.5145409669358714  0.8284917128012954  0.3285139788439078
  0.3400581617644430  0.8076323340701602  0.1592234781032826
  0.5245633325920925  0.6612349865073542  0.1728975568860870
  0.5247094444365445  0.8574099552922613  0.0099985776387519
  0.3324300627663109  0.4893311019487244  0.8384615222804387
  0.5116721303025352  0.3419120240954133  0.8264481246490710
  0.5028867558614386  0.4909310448639078  0.6538372028913532
  0.3215949120202538  0.4913797446622066  0.5158563267143249
  0.5119903051392070  0.3268875848283164  0.4631482095795583
  0.4919767880778234  0.5018459518675349  0.3375917996436630
  0.3294787371102342  0.5011282670056342  0.1524782039541721
  0.4777492028917534  0.3202428157093672  0.1884349867824580
  0.4954441610116243  0.4966097308883059  0.9989740579691898
  0.3481386042477681  0.1741570033760038  0.8436434928103559
  0.5133357567675448  0.0158829280695845  0.8393630513888497
  0.5213013826282971  0.1991962577703693  0.6621430681371909
  0.3415237740894652  0.1580620893848411  0.5282924325108137
  0.5080611556196984  0.0037539610400531  0.4904207606421153
  0.4829919420219817  0.1654310007885755  0.3551097353085973
  0.3477883244810189  0.1301279662385521  0.1934981326342189
  0.5086015143860879  0.0025733911462016  0.2125708497395552
  0.5171551098553122  0.1631502147345314  0.0342388183085044
  0.9883913129988560  0.8225076453297648  0.8435318340497578
  0.1783325926611003  0.8233560575803426  0.0080534470193752
  0.1743522290980253  0.8296847368612319  0.6640378258075139
  0.9978088418126915  0.8490672078379733  0.4964662849659258
  0.1742187487014727  0.6634441538712250  0.5182723745229587
  0.1496831328066867  0.6550782487624550  0.1580759900081696
  0.1695018340754676  0.0114700573641025  0.1753705474237928
  0.1267770951471558  0.5207840549848404  0.3444297246534074
  0.1688451303622800  0.8092941791771325  0.3204538802790745
  0.9856298284906363  0.5187858570921360  0.7991168292567000
  0.1572838231822935  0.3498260715439094  0.8089475774677035
  0.1471632804069821  0.5279836564042306  0.6613824687407602
  0.8272641093981550  0.6792432207292948  0.5206059130661468
  0.1670442887216515  0.3338143753128661  0.5237713862980695
  0.1754121776155083  0.3118431457687121  0.1722488591627138
  0.9888617800308398  0.4583224762866344  0.1928002451377760
  0.1484218098601917  0.4981695932476545  0.9996942915141628
  0.2147282676971286  0.6633761788679458  0.8624362636702633
  0.0285349160033444  0.1685263330477875  0.8145561832475057
  0.1809115537593086  0.9908902407528268  0.8212338467620263
  0.1614509459413943  0.1509281249363064  0.6560183948369595
  0.9894203009316765  0.1704678513665843  0.4913687670011307
  0.1627724808138137  0.9962626666701800  0.5382254873527206
  0.1840308938666115  0.1521058556326401  0.3576618140946095
  0.0111592081138465  0.1922822606753587  0.1800185963675001
  0.1697015283599672  0.1679139001303628  0.0065768260686860
