Cl O  Li
 1.0000000000000000
    11.7780000000000005    0.0000000000000000    0.0000000000000000
     0.0000000000000000   11.7780000000000005    0.0000000000000000
     0.0000000000000000    0.0000000000000000   11.7780000000000005
 Cl  O   Li 
  27  27  80
Direct
  0.6778178846805896  0.6679152169678967  0.6561268501543529
  0.6845487460237635  0.6648445200806296  0.3260275622969889
  0.6866901003259948  0.6806985661253897  0.0043109414569844
  0.6682769310338939  0.3169068140532934  0.6560460412761246
  0.6632235826513370  0.3165997727043536  0.3311783995466670
  0.6657591433900959  0.3295215414784112  0.0220650655242590
  0.6709884008788164  0.0093457539062095  0.7089160595652175
  0.6634677096732393  0.0049621208680422  0.3510000967357830
  0.6554939867305003  0.0117293982048673  0.0143459186346924
  0.3093125985142175  0.6720120570553522  0.6541301097364060
  0.3592202183876169  0.6607352104869145  0.3103243244042330
  0.3277574881250017  0.6565689379214225  0.9989651808753337
  0.3506303075056817  0.3472795151388444  0.6722370069023558
  0.3470598182327788  0.3184541866636773  0.3187121118770724
  0.3394281970039824  0.3318086634991099  0.9969359278265794
  0.3235062974121728  0.9867307076609177  0.6553224860297834
  0.3579378430279561  0.9884330002227525  0.3388147778111306
  0.3012570343152968  0.9880185017396643  0.0042617178406422
  0.9813210810463756  0.6823484275510217  0.6809194269459902
  0.9824214947310878  0.6634863560335724  0.3000419614454152
  0.0069172976532951  0.6778140211529994  0.9835329589588138
  0.9827242193231933  0.3456148765385865  0.6632389626028757
  0.9844157933727480  0.3393109743285770  0.3278312480376652
  0.0120838539959647  0.2965553045470755  0.0116956564037450
  0.0008274047994119  0.0060231327601206  0.6561574976096729
  0.9836467730110509  0.9948812341843459  0.3187437917103457
  0.0083249000791426  0.9913017691695438  0.0173639085789017
  0.8374033545294089  0.8523136277695501  0.8390023212905175
  0.8280844228707918  0.8498388356311023  0.4895822622211515
  0.8163481883558326  0.8470414557462999  0.1593889469992157
  0.8277560052254068  0.4981582332126590  0.8476250658399092
  0.8352341462651433  0.4971256123468815  0.4934539629439637
  0.8429684789789421  0.4850188958456160  0.1780867489658577
  0.8407774085933118  0.1649246661317265  0.8422476317508304
  0.8521453878195109  0.1639145349111672  0.4830880380990420
  0.8352814332239462  0.1765402136396721  0.1689680176593642
  0.4731828822088160  0.8332608699713115  0.8518154677097221
  0.4973976107444648  0.8282792212497477  0.5049882967195817
  0.5156489193676492  0.8258800558570564  0.1520973930925127
  0.4954401006887439  0.5282706333550391  0.8441554662085621
  0.5083211006549980  0.5210739063997543  0.4970627109292542
  0.5186432202863709  0.4954970462468747  0.1858057579519967
  0.4871824940515475  0.1276461864893815  0.8304127747772720
  0.5036768573398245  0.1689507579653221  0.5090975253424767
  0.4966056756407450  0.1599367725356804  0.1657287294037792
  0.1562182252895902  0.8526056085459944  0.8355882676416000
  0.1380915914862975  0.8182513090923653  0.4900245653246809
  0.1671338610305962  0.8431070836089098  0.1720988151376784
  0.1575577255626678  0.5108026364432584  0.8242670895492847
  0.1653554179430136  0.5019885578465185  0.4939668726024180
  0.1743688568196212  0.4858484823805744  0.1544147779571372
  0.1856645088609731  0.1781920183649809  0.8316713852013015
  0.1698291670756024  0.1752203083050025  0.4981911202749357
  0.1786238531609839  0.1604118890639613  0.1779239976179229
  0.6892010054501041  0.8346469284658133  0.8323619043531363
  0.8530741231233979  0.6638260691083290  0.8431423593103725
  0.8473324822865523  0.8580657948129787  0.6745853631055798
  0.6751574264521841  0.8203790602968587  0.5291506371347757
  0.8456307995362046  0.6639217766174130  0.4860586550529523
  0.7776979010832827  0.8255958482793194  0.3300666701898783
  0.6591254470307638  0.7919315821526061  0.1551412076675837
  0.8395885950160087  0.6718317755249158  0.1675178707609368
  0.8524302431638068  0.8192770474384543  0.0143891962727428
  0.6561184741787327  0.5306132811154626  0.8362417021579353
  0.7817663608983741  0.3145509275638216  0.8098141220861117
  0.8372995499383381  0.5002232320317547  0.6464796223065804
  0.6589333437606267  0.5366002635365084  0.4755805451371035
  0.8360919511308257  0.3395577329021249  0.5216821316226036
  0.8502568244169078  0.4926859013226947  0.3334747117554208
  0.6734224646948708  0.4830457989070706  0.1948962911704712
  0.8619175941277499  0.3308603939849299  0.1581645771106379
  0.8328179770002796  0.4804469189871747  0.9948761573186259
  0.6807915380402448  0.1502154159023186  0.8398172116216701
  0.8184961822652930  0.9879061382798996  0.8522742483750946
  0.8072401047121517  0.1175803799883009  0.6358729712141910
  0.6686794369794581  0.1933625492338248  0.4845038938552553
  0.8285393169368105  0.0029712122468794  0.4505310479340247
  0.7989519315904550  0.1716747985300290  0.3299566308456775
  0.6690438056688645  0.1829923126927452  0.1553521568960450
  0.8428204643202233  0.0173256571998088  0.1675900562468492
  0.8304673940995092  0.2091849154453116  0.0129331587471701
  0.3104114332679423  0.8284003535962704  0.8702478270861316
  0.4710471958639755  0.6743195229945428  0.8323275727255124
  0.4684029317995436  0.8334386818917416  0.6559462447406372
  0.3135230406619477  0.8318328685921179  0.5127091882772825
  0.4974064365638304  0.6707540539124716  0.4929805670456048
  0.5199280652560375  0.7955401277108469  0.3259067335910407
  0.3191426787159571  0.8340108217049297  0.1559290942303100
  0.5095666747770285  0.6670361977474090  0.1323829619970170
  0.5004330043542695  0.8381153945056824  0.0011284217325066
  0.3154921902730246  0.5218257609476393  0.8234298512718486
  0.3352374105227752  0.1312220198363956  0.8517139303016075
  0.5051036846421298  0.4108062244870052  0.7387371266977123
  0.3506691330138084  0.5112197171363989  0.4995802556605926
  0.5123079823690724  0.3173204939719994  0.5595394311707755
  0.5159174995771517  0.4923861878329530  0.3569227073550338
  0.3503861399983695  0.4977504236783935  0.1631080683333389
  0.4781454623023009  0.3449567052292888  0.1587016565588229
  0.4932049012062857  0.4807197096793104  0.0037657797925491
  0.1741947695569049  0.1777879942165442  0.9879146225184261
  0.5041939774809119  0.9866000865464418  0.8491614061760862
  0.4734317460236806  0.1545284177147643  0.6687085819703744
  0.3303405584923183  0.1783591218944837  0.4692214208279438
  0.5135608843503011  0.0132184212181838  0.5074740199187119
  0.5186479165939232  0.1708503131567223  0.3293173864655240
  0.3546669862739750  0.1475532269226384  0.1531575642797505
  0.5321534444938196  0.9938148345698237  0.1419264054964235
  0.5176759833576368  0.1850790724196804  0.9985095460528298
  0.0082532548204190  0.8422570519419346  0.8658130552819568
  0.1435004422534853  0.6674261937013034  0.8106578380291373
  0.1259213837409031  0.8194694341064609  0.6393718822823304
  0.9664898773757249  0.8040632781518008  0.4952730533831199
  0.2074273802429015  0.6633654665995092  0.4637852828944605
  0.1211222230046170  0.8547322261590097  0.3430127706953061
  0.9717639167885085  0.8251922897130969  0.1828536225877214
  0.1604957213975237  0.6693761329853666  0.1673750787200994
  0.1485918469213803  0.8272539687285779  0.9992338406323407
  0.9959965980731249  0.4781007894814971  0.8131854231421393
  0.1835987610617937  0.3478210074967122  0.8279358773975073
  0.1773019033131126  0.5076147342942322  0.6697998661951464
  0.9989406637937674  0.4783973451092640  0.5129387810370184
  0.1756101192454940  0.3393843743767874  0.4847236891457872
  0.2112490005136252  0.4937381576122904  0.3321563448663287
  0.9976736811925536  0.4874961980794799  0.1584899887143352
  0.2039901891822064  0.3224906225195110  0.1786906900685488
  0.1806476783181767  0.4927312854672307  0.9980368676634745
  0.0298502574778477  0.1743402971919713  0.8354810622760946
  0.2024478367626543  0.0039967247602910  0.8158317114770677
  0.1538804155356540  0.1740771015419901  0.6525695591250885
  0.9988476752911404  0.1616425139483738  0.5358343734607863
  0.1659892069141786  0.9865872349591259  0.5145683187868636
  0.1656838659524560  0.1606472206305554  0.3400130852170634
  0.9900763178952835  0.1704848716039526  0.1889584985224952
  0.1744477831262876  0.0096570297759945  0.1632044944584493
