Cl O  Li
 1.0000000000000000
    11.7780000000000005    0.0000000000000000    0.0000000000000000
     0.0000000000000000   11.7780000000000005    0.0000000000000000
     0.0000000000000000    0.0000000000000000   11.7780000000000005
 Cl  O   Li 
  27  27  80
Direct
  0.6856084307139609  0.6771268935562650  0.6928185281442729
  0.6504796858537036  0.6677990146220523  0.3479242925660232
  0.6552380575394811  0.6576165696549519  0.9903715876075602
  0.6701485911057284  0.3333442456358693  0.6813843147874217
  0.6607503890144604  0.3214952187688341  0.3230547530101012
  0.6797127833777263  0.3157558046295348  0.9622406825959486
  0.6481234754809523  0.9930495960678823  0.6956545311101523
  0.6955636310751019  0.0128977877948774  0.3267031969398321
  0.6507591971238882  0.9869554709071997  0.0023686316636523
  0.3165340816255560  0.6967080669249631  0.6759058696005573
  0.3569633787814277  0.6699103692355225  0.3219960392976211
  0.3237590471542700  0.6335110707553050  0.9997853911310972
  0.3376493483901796  0.3242394210676882  0.6601868019125172
  0.3496713086857480  0.3410965336289741  0.3577847165825083
  0.3267072756764866  0.3367073281536801  0.9929120021674196
  0.3252135259915603  0.0142935564619181  0.6766161861178502
  0.3745187432078461  0.0069197627707794  0.3439474512336124
  0.3177919633122067  0.0313110785432080  0.9997239820389494
  0.0007540912966725  0.6756305123196930  0.6455865080425945
  0.0092024674785971  0.6569627707699270  0.3556589086776917
  0.9888298777254945  0.6505021090526528  0.0152034263906499
  0.9948643153728283  0.3225893977004163  0.6389920015600784
  0.0166476420081257  0.3210140294290630  0.3287359693726203
  0.0104872909403898  0.3447062937495129  0.9949058042302236
  0.0043969445233983  0.9971760528141658  0.6391244293359726
  0.9844757389410485  0.9756038629686428  0.3301072102070862
  0.0138320120596264  0.0027664003066722  0.0288771446002721
  0.8455432896505113  0.8327599347748639  0.8467386316685624
  0.8267630796319483  0.8495806509526191  0.4893982499121603
  0.8335892436301071  0.8066178578138952  0.1713070560974623
  0.8400822936753283  0.5029507653650871  0.8424624817005091
  0.8324216444076092  0.4791476115068279  0.5071443411047779
  0.8460317056359555  0.4830362756164024  0.1649028310416362
  0.8477528213830713  0.1530253572875718  0.8266564108665208
  0.8334985563118547  0.1642606050973021  0.5032363654546649
  0.8409690860945237  0.1928555614685920  0.1530886621125542
  0.4767653342482334  0.8350690606158619  0.8183233799106171
  0.5057922395794620  0.8478318431851085  0.4981209529386790
  0.4896728521579941  0.8483466556578297  0.1430834116633825
  0.4814386865731494  0.5232680039717957  0.8321490664322719
  0.4785998901139845  0.5184111312836487  0.5191463218505439
  0.5147559117659081  0.4908798784516133  0.1801505473445193
  0.4838310099315617  0.1642744814715570  0.8330528627236397
  0.5241865831559435  0.1727440899578731  0.4925115779360879
  0.5003078430373372  0.1711032162932465  0.1454856438258763
  0.1481014566000807  0.8485960457830233  0.8431351063011534
  0.1782952729018382  0.8471288545270138  0.4815050119643701
  0.1568630964696035  0.8066878166022612  0.1690581118183314
  0.1541469404384812  0.4865159156294133  0.8268913881857779
  0.1622421196110224  0.4958855350212680  0.5022093315754582
  0.1576599809146877  0.4952820595007912  0.1684631989620556
  0.1573286685624925  0.1792767549767149  0.8478592678155367
  0.1565768241359599  0.1664306028270617  0.4878762414110999
  0.1781002749248908  0.1703442160705080  0.1774731864574663
  0.6587083859082072  0.8696023055813995  0.8583633693645631
  0.8211550406478850  0.6831067505451626  0.8073510241102936
  0.8534178638243218  0.8196928638645532  0.6425450821067096
  0.6797568315037346  0.8313322572789499  0.5455190846773168
  0.6787258300543542  0.5119353685084692  0.5605886044483751
  0.8172954855480533  0.8245912745832926  0.3414499467801913
  0.6846513556231203  0.8405399350310685  0.1733550308016807
  0.8252657672309479  0.6466244164891705  0.1973423730324350
  0.8610514688382049  0.7954289860412443  0.0282039380218601
  0.6417289264381005  0.4568120942440875  0.8349913851221014
  0.9987684206278731  0.1710954026091291  0.8502733318390836
  0.8411661690700826  0.3265815020323723  0.8273109789743345
  0.8291313141714499  0.5123198584466129  0.6788303736725527
  0.8019576689653619  0.3131417629236187  0.4787413159406329
  0.8405739484935673  0.4804399462773324  0.3462339862158671
  0.6666602062441719  0.4710443352522999  0.1931682260547106
  0.8510650137405950  0.3429568787008532  0.1481154647203141
  0.8201668727622150  0.5180564386072166  0.9985782215321884
  0.6760093805040100  0.1726260749879154  0.8344988396248438
  0.8401815639004866  0.9990021085625113  0.8408647654828721
  0.8527135796331091  0.1501879879391070  0.6764917339677129
  0.6758129048096000  0.1900328377171708  0.4947496518826516
  0.8173586427875502  0.0033178182321114  0.5055250056782361
  0.8453717934540307  0.1570859426904312  0.3294655569450415
  0.6759695023752250  0.1807639257825270  0.1619055342025796
  0.8569190420754175  0.9645645898463745  0.1790792831549597
  0.8604033783959807  0.1734544064751658  0.0121461668639737
  0.3252187081240318  0.8372274187902653  0.8333242769118373
  0.4977092060299010  0.6849115901200222  0.8611205877227108
  0.4792334867794521  0.8513639522893939  0.6597254301809089
  0.3406313619869861  0.8151793884234665  0.5047623010404887
  0.5211470600343254  0.6740181403836599  0.5373473880800003
  0.4949542143692996  0.8372086335600559  0.3577162152689000
  0.3234254878618234  0.8543085371247163  0.1699910373621465
  0.5056942648874215  0.6938164370058341  0.1789003983711661
  0.4699812750764060  0.8716667376047561  0.9942997673749839
  0.3105473421169698  0.4876506406990445  0.8489344793325649
  0.4540184447351531  0.3320544209607807  0.8321021033567485
  0.4391458864834239  0.5024481794861659  0.6774994967917911
  0.3200575470948205  0.5408160000536061  0.4945939045106353
  0.4988650239981080  0.3392732731925946  0.5211671915728114
  0.5122392577135882  0.4882396629281749  0.3377451674025372
  0.3330671489657300  0.5113039175697279  0.1709265742149023
  0.4967796205324056  0.3295394875383831  0.1691407729040642
  0.4932666610270190  0.5215842967434590  0.0043020547982159
  0.1568796347595616  0.1566647426068300  0.0236156630126699
  0.4807339570424275  0.0210996485529328  0.8011624243477762
  0.5014454830564837  0.1801472317757067  0.6530573617085428
  0.1775355844271309  0.9932324617061244  0.4762832442764876
  0.5309748932958137  0.0103971216839744  0.4783432633901614
  0.5054154013837959  0.1786549598082429  0.3267720626221299
  0.3402507586481963  0.1842595777751667  0.1534855709501950
  0.5130678321132983  0.0036847387675127  0.1606658709503992
  0.5288006243553061  0.1610695956930634  0.9799170224879261
  0.0017020053774196  0.8409174209932935  0.8089415339249623
  0.1268284283142967  0.6546731993819273  0.8447982469412436
  0.1606031386393101  0.8819869544218621  0.6427630960392045
  0.0093921504803215  0.8416286686750148  0.4786990491726617
  0.1470365789839381  0.6473735180291801  0.5337533362985158
  0.1777214327014331  0.7718760320163774  0.3239783061815165
  0.9886514749711129  0.7928120091431080  0.2087345625337745
  0.1573630507968790  0.6494112701673900  0.1540897144799357
  0.1404312122902072  0.8250523224316213  0.0154668472407239
  0.9850285495013311  0.4826880201201498  0.8312099668634420
  0.1284395958093843  0.1569215820474515  0.6524502829865819
  0.1612743057651967  0.4938938552795629  0.6611144845957458
  0.9851996155403311  0.5048498549742730  0.5041465584408019
  0.1689802177212220  0.3336000526985375  0.4958207743732765
  0.1583003184009094  0.4688877179505235  0.3491103531354507
  0.0145803658847212  0.5118918871782000  0.1407497415426121
  0.1762899698196903  0.3376567717447482  0.1565975933196524
  0.1659695809395920  0.4850354046735353  0.9916833781478761
  0.1487793645467212  0.3387248173442181  0.8163722260642560
  0.3243118349415094  0.1789247140946335  0.8115086327980598
  0.1606856782688131  0.0037978765107424  0.8529258549271419
  0.0047969112746583  0.1736161254451473  0.4829933366043653
  0.3423222756182913  0.1368252318373430  0.4973510823833733
  0.1874324250698517  0.1688282196528229  0.3303271876819628
  0.0112740654195120  0.1834825817877127  0.1631439828924618
  0.1400140202621895  0.0054020469883412  0.1681457022560004
