Cl O  Li
 1.0000000000000000
    11.7780000000000005    0.0000000000000000    0.0000000000000000
     0.0000000000000000   11.7780000000000005    0.0000000000000000
     0.0000000000000000    0.0000000000000000   11.7780000000000005
 Cl  O   Li 
  27  27  80
Direct
  0.6864127366597897  0.6401434191282545  0.6900048463013356
  0.6588452898712734  0.6664279642467810  0.3467378003191549
  0.6665137123376998  0.6652908505379637  0.0028501819543991
  0.6757221593126072  0.3591156464583319  0.7039852680597584
  0.6273178841662885  0.3166431518766142  0.3597392443799627
  0.6658903989663554  0.3375767403641586  0.0239928010415247
  0.6759577843984232  0.0021399790987819  0.6499070031965941
  0.6878543411367211  0.9897541305617579  0.3300129738348284
  0.6505850921678410  0.0104689472805401  0.0046643306432053
  0.3333832413531642  0.6606248260722456  0.6619193482073034
  0.3627531795627640  0.6738982106315804  0.3268669335996740
  0.3239979338649600  0.6493466434852803  0.9861704910088883
  0.3381085769444356  0.3257908504939155  0.6702273996652777
  0.3397328515909893  0.3396951191962523  0.3466297042746310
  0.3404921149688923  0.3352798613596658  0.0178440806729614
  0.3120066007820065  0.9568622640633020  0.6874079501665266
  0.3396042294436288  0.9976094823894486  0.3099404492884660
  0.3263464317671188  0.0144785830601666  0.9979485091553836
  0.9972069179224938  0.6758854369781927  0.6771824287232563
  0.9986222046689222  0.6659999524929583  0.3469386079524277
  0.0017756820422520  0.6793023246058058  0.9745130411016609
  0.9972998411107680  0.3399044692510212  0.6541709265708473
  0.9943078605121033  0.3483909803959848  0.3246943448036786
  0.9940454891197650  0.3180342103192428  0.9844113885607327
  0.9894784799476395  0.0006543145558093  0.6721738572040864
  0.9940342170960209  0.0259192930601431  0.3191497059715721
  0.9748568799981544  0.0046399968105414  0.0143192981627050
  0.8315029722774653  0.8385879595086536  0.8286311003981223
  0.8275097343540310  0.8397111867218636  0.4928557175825960
  0.8340261849661944  0.8311153244846684  0.1498105923749686
  0.8464958531675183  0.4967543399505975  0.8345813220669480
  0.8301965890697135  0.4828736337568423  0.5025873575100809
  0.8536685722747124  0.5106125767418394  0.1708235322659838
  0.8314212727202184  0.1704472799563451  0.8308032236119034
  0.8415406819040514  0.1706482900166676  0.4946819334539006
  0.8221675225715946  0.1764442420309397  0.1452139599018776
  0.5044617093740589  0.8241974205475990  0.8299596696105179
  0.5069523313077912  0.8462673940065822  0.5152770234289866
  0.5092798780103091  0.8267743168899009  0.1499380606881459
  0.4926866088655633  0.4844828883163104  0.8653282095538146
  0.5127635260789034  0.5098387791017701  0.5164268900419333
  0.4986903522463218  0.5035637025036335  0.1791485268680155
  0.4879019621487384  0.1727839358760981  0.8263639174418160
  0.5023070353719593  0.1302769578464691  0.5033811954280676
  0.4940816551210703  0.1666545966323717  0.1736502235875785
  0.1541291294074845  0.8469839047915949  0.8344684487440519
  0.1932932777456223  0.8398793631147297  0.4715450479869259
  0.1655355495304159  0.8414415331424445  0.1537093677156741
  0.1616685349938036  0.4814679398385225  0.8214548185748543
  0.1734893334087624  0.4840711516972813  0.4958630548033164
  0.1782759639106739  0.5150591298003050  0.1567798925399490
  0.1673161484660773  0.1682315843201224  0.8104455400806708
  0.1666118035467499  0.1726455567449436  0.4810249901208509
  0.1588736854471220  0.1683073628861665  0.1808434687976091
  0.6557732164800685  0.8084752354829940  0.8203328868947619
  0.8591780697709963  0.6874462886973174  0.8277880322216560
  0.8131781421498405  0.8392740252653959  0.6461405645396106
  0.6699650125637568  0.8520344596808662  0.4826488599133052
  0.8487694328185942  0.6500831945482103  0.4941554611831184
  0.8571865924563409  0.8323864853857772  0.3152987135359412
  0.6486932899324432  0.8703535408802805  0.1776561334443219
  0.8214758698282817  0.6630949219031412  0.1897742668311888
  0.8246003718253512  0.8359035339175673  0.0073792771727058
  0.6388256595129898  0.5303979585182445  0.8470164966990084
  0.8512316744799626  0.3372392742296534  0.8226891377529231
  0.8600720685931598  0.5074366987595637  0.6806357127344000
  0.6847169647792926  0.4966448269167259  0.5331576881242249
  0.8508599374459482  0.3401020785369093  0.5234736590388224
  0.8118664148679775  0.5052982189214376  0.3384491211298341
  0.6707848421149211  0.5208644541869767  0.1646755393696303
  0.8494815711793341  0.3429852874907718  0.1628172995390677
  0.8679739299332657  0.4912361380911779  0.9850111571358625
  0.6579159472862375  0.1646856393269921  0.8319675840016064
  0.8332243309370406  0.9928193922827413  0.8579477193228391
  0.8522430809909348  0.1467849647178938  0.6731690290656751
  0.6731077734807065  0.1674254084734584  0.5086478614355670
  0.8201962879619062  0.0142165336533542  0.5281716669783884
  0.8332608487768013  0.1828980819566399  0.3116786093931642
  0.6603631688605205  0.1381136882833438  0.1479509153123534
  0.8464431411637844  0.0125017677897526  0.1666113998523888
  0.8199136998005666  0.1404303039251795  0.9966073538830287
  0.3233812601008447  0.8001630949986164  0.8281413888795601
  0.4849970530151513  0.6653491495282687  0.8523621902266990
  0.5131596353296980  0.8466962154686036  0.6791771853561164
  0.3213852889056866  0.8295830326894849  0.5624567363810303
  0.4869532270523442  0.6915149104540487  0.4862059080301100
  0.5035072658348639  0.8399009823236344  0.3217343957552861
  0.3382309036105512  0.8700409935155897  0.1433535642232361
  0.5038953589744916  0.6728348208542528  0.1545774356327748
  0.5171150193948438  0.8190220086540911  0.9921635361200718
  0.3320935381343055  0.4747693858524759  0.8488783397310550
  0.5017878909603751  0.3205068972163742  0.8309619264188450
  0.5041450324975548  0.5170314170306517  0.6693095549366629
  0.3492173685762369  0.4860272447636543  0.4911133874806746
  0.5055831957146417  0.3485508572798143  0.5187792947861507
  0.4946398679532409  0.5079465720122728  0.3440804999527242
  0.3313666630843496  0.5040079893922498  0.2105812776845745
  0.4943852552101657  0.3323739603335352  0.1816810512010295
  0.4879795321941721  0.4794445600208391  0.0093930783954327
  0.3354557502158026  0.1551749788882796  0.8413752596787993
  0.5019589823027564  0.9833431659503468  0.8316281543247196
  0.4651910641650896  0.1449403279850692  0.6613472893649354
  0.3573290657960311  0.1753401036885136  0.4983227458838589
  0.4912668260245863  0.9861996064572287  0.4723744320948345
  0.5405114568249059  0.1259656665425932  0.3295389908980256
  0.3374607901427860  0.1695930782921468  0.1820914720442358
  0.4920068183473607  0.0176394042654541  0.1517971102269071
  0.4910095817298654  0.1761759249766018  0.0016308842867308
  0.9803686522684089  0.8614716087364910  0.8165658004712194
  0.1295252652329022  0.6897243217434860  0.8251958323943991
  0.1239261330390244  0.8694667484610853  0.6631936669703871
  0.9818978266870274  0.8594870139415244  0.4797203073003165
  0.2121382644200796  0.6744289743558155  0.4776327985932975
  0.1983115455204714  0.8510450772328984  0.3114173975282697
  0.0069832148385972  0.8415249330869088  0.1685542744324184
  0.1885969904359786  0.6922106927091751  0.1327065795411999
  0.1317219732118658  0.8253449390067696  0.9929295175456857
  0.0050658454342415  0.4937332376904995  0.8244818317048024
  0.1590449387311430  0.3200212342388055  0.8323562439369732
  0.1761234761207107  0.5027166262715835  0.6656760703659028
  0.0257218634209400  0.5085368897745211  0.4699093159693608
  0.1999181078001790  0.3308188752525587  0.5296830683020459
  0.1632420308149475  0.4223626421092583  0.2918479042003378
  0.0127323739425844  0.4933886258811411  0.1773678165974767
  0.1750547422692720  0.2946153844574873  0.0828710135761307
  0.1975230314338911  0.5218837553528860  0.9984948320868702
  0.9912773580458862  0.1616188290390786  0.8693218523313481
  0.1607489696352668  0.0220657323313195  0.8557730050428222
  0.2026190109531086  0.1587350128040670  0.6550568283110240
  0.0065436185642726  0.1420979688098300  0.5125655535840642
  0.1852280577764323  0.0044341791077893  0.4557876001302683
  0.1535997725512444  0.2149723645790137  0.3310312021373745
  0.9849491095550622  0.1661488022847133  0.1477901578708579
  0.1513234803777030  0.0125431185753240  0.1411080409612445
