Cl O  Li
 1.0000000000000000
    11.7780000000000005    0.0000000000000000    0.0000000000000000
     0.0000000000000000   11.7780000000000005    0.0000000000000000
     0.0000000000000000    0.0000000000000000   11.7780000000000005
 Cl  O   Li 
  27  27  80
Direct
  0.6637820974606190  0.6549915059631132  0.6589889044623611
  0.6469551870151438  0.6865663200831308  0.3228056311417491
  0.6768042700513129  0.6587653534501147  0.0257315952917140
  0.6470183442546410  0.3276639909687682  0.6650121213252979
  0.6486395420100397  0.3138146204823021  0.3219288183761027
  0.6790024253836816  0.3390498849888631  0.0029534051797863
  0.6780649047458390  0.9917739579004005  0.6766183976743687
  0.6484140382767070  0.0025173797777763  0.3447782371898409
  0.6978922294069360  0.0041829201272820  0.0042846663556501
  0.3486705893316566  0.6265271454029181  0.6592394281790328
  0.3174249013516978  0.6743846246026673  0.3234653004112144
  0.3400437557558615  0.6430822772915059  0.0049505343209269
  0.3256305854506538  0.3401029914720674  0.6770959230845407
  0.3388191328334717  0.3369263847524128  0.3106399071555049
  0.3551883354769376  0.3362450962740427  0.0099088748328902
  0.3090718098751718  0.0266201531869745  0.6865312502967184
  0.3350075731871166  0.0189411665588934  0.3609053168391963
  0.3438816511613788  0.0005247174741496  0.9872550549514032
  0.9823608104988099  0.6574000639709090  0.6648530946350770
  0.0001124047024018  0.6872821021307645  0.3012215028446796
  0.0256194849301913  0.6629093185547333  0.9950773425345762
  0.9888983350320129  0.3443666719338608  0.6514242865870056
  0.9611700726042240  0.3175271528159584  0.3506292696043283
  0.9715054689197172  0.3654283562584366  0.0283405560786834
  0.9999897105046742  0.0258109611772704  0.6926964494922939
  0.9965133901371318  0.9831147087955235  0.3749320539065836
  0.0135587117781866  0.9741332154376920  0.9600947129979858
  0.8301376590148384  0.8295041083962530  0.8234723396904106
  0.8330041879798084  0.8224513880441034  0.5130211880697754
  0.8418073355158658  0.8497495663711484  0.1633496842406613
  0.8384532002736507  0.5035341299251114  0.8338289933764572
  0.8202250493049484  0.5045917707742281  0.4882022957616808
  0.8247671884162683  0.5032983024122456  0.1838621131300144
  0.8437940355521493  0.1682615354155557  0.8379610962559653
  0.8393963483834739  0.1505163450233091  0.5163399390637082
  0.8358423771578243  0.1498880215824853  0.1727784426950772
  0.5176687145630905  0.8137311546275905  0.8245660125543687
  0.4923554144288816  0.8206258199393576  0.5191107605195939
  0.4941816707855963  0.8473555831109287  0.1325682829418261
  0.5097815899122005  0.4944640215959485  0.8287684790763421
  0.5084206728572677  0.4976307498755793  0.4775577503255932
  0.5034318987035555  0.4876125542165811  0.1522614389544015
  0.5110357874265471  0.1720502815334130  0.8540084601331603
  0.4894488453934870  0.1685143060724789  0.5219095573937441
  0.4752072117701699  0.1699047977193685  0.1394477156181055
  0.1961457547326287  0.8294338257246073  0.8089262557843894
  0.2022581609536503  0.8312002851308495  0.5069673642369283
  0.1940804117875486  0.8496783120496645  0.1516121643139368
  0.1607929231283865  0.5015682798749441  0.8152927484381569
  0.1519361627882236  0.5009682860997215  0.4898356796254696
  0.1676668497889148  0.5142657189925571  0.1475479251028309
  0.1504826657221242  0.1950345167622315  0.8388836777775420
  0.1660169175138154  0.1636888500624407  0.5121124930438057
  0.1616212040088745  0.1598244468347692  0.1834445061265448
  0.6810875454515147  0.8194169255987271  0.8307507257175324
  0.8381429200919160  0.6522566355512488  0.8365956853205296
  0.8443588879915488  0.8044154618017680  0.6704833601091941
  0.6595606027959768  0.8517419343648226  0.5452540520428607
  0.8294617146105798  0.6657219614390809  0.4909207695825218
  0.8023419959705238  0.8338697311202604  0.3319687344575304
  0.6504798468040013  0.8647000185515910  0.1365315110551466
  0.8297402542309260  0.6768362186012232  0.1789953012737285
  0.8619606486977516  0.8330791320350683  0.0113693644883867
  0.6611203032136858  0.4880542905243714  0.8347485789776992
  0.7904141844957568  0.3333794782307964  0.8281257327082293
  0.8411811071950062  0.5109730406026217  0.6597082492260691
  0.6658748692709294  0.4793613037887443  0.5182217414028525
  0.8113396354159046  0.2969680543703039  0.5357928546537351
  0.8144178221040097  0.5100447506382439  0.3285196204436098
  0.6726467828197765  0.4974633831909119  0.1684763010938464
  0.8128903885580181  0.3440223435223718  0.1594547651352520
  0.8574976990482629  0.5269570448132701  0.0255483810993956
  0.6609127345169538  0.1566466053101116  0.8307609280408358
  0.8493181887668292  0.0043333351280008  0.8346832355260655
  0.8531898894896411  0.1488052696578569  0.6836511992048306
  0.6615430113788069  0.1042336976632315  0.5195978809719204
  0.8354522597476999  0.9929791124012882  0.4983402067778538
  0.8159969150330770  0.1594845616970204  0.3228809137615215
  0.6720971528945120  0.1491046795070241  0.1470873732007738
  0.8823461861910191  0.0063248690589717  0.1785873297978232
  0.8320247649426838  0.1733231023363293  0.9952090478989369
  0.3447010353730338  0.8222240219819139  0.8432498672972887
  0.4744970167091069  0.6574940710927759  0.8188291489958955
  0.5113446911043438  0.7837941372810446  0.6627708895167593
  0.3480821338982652  0.7782882834716549  0.5404394461226847
  0.5225755867325063  0.6559721030771255  0.4735532979436074
  0.4856916778953783  0.8267208174341074  0.2990470517198273
  0.3316331749972293  0.8405718478223811  0.1067396946313292
  0.5114523822947683  0.6615702231357549  0.1562408713530481
  0.5259934864953676  0.8173811572456040  0.9671330964543424
  0.3320508224861088  0.4850014881882951  0.8121531048977721
  0.4847189349508931  0.3317602642604845  0.8298972123053030
  0.5091672238164514  0.4941940648825084  0.6300810262363385
  0.3371004259682469  0.4888318533075646  0.4838521789496782
  0.5363152012726413  0.3076196240250151  0.4930271040051601
  0.5378254285194107  0.4748047923568979  0.3112224719617507
  0.3317907239699876  0.5160433928573509  0.1825391916323048
  0.5107444139312518  0.3240963154318558  0.1494495956569001
  0.5183212584004074  0.5009216873928876  0.9811177666504701
  0.3247102508693283  0.1622596644850066  0.8447041032221194
  0.4925603920593776  0.0121455374160085  0.8572560377764294
  0.4864217108073090  0.1650317106245428  0.6796227389747539
  0.3292939077685355  0.1883840594431866  0.5010788423328421
  0.4745715098633856  0.0000614644559167  0.4872755847282907
  0.4977859248903841  0.1925505344357285  0.2934385066681398
  0.1483837198867989  0.3468181444761869  0.1610396879633498
  0.4405333204905215  0.0073123695679623  0.1532271171948532
  0.5235623781142386  0.1785495865744692  0.0022740982724571
  0.0015596402886750  0.8307249864182239  0.7919907229840614
  0.1834761088489354  0.6492396628029643  0.8273359433312361
  0.1981670900371105  0.8398108840572608  0.6591302795138507
  0.9936076573784862  0.8245418926714574  0.5071792243871132
  0.1901143598168852  0.6682737163418135  0.4868720666474781
  0.1987916989415729  0.8420106992914368  0.3399043606295215
  0.0365382304567478  0.8446398218125534  0.1715412085674929
  0.2118850246402259  0.6937330473496545  0.1314342967309261
  0.1706759177609098  0.8663605681254454  0.9576443234403755
  0.9967088492682017  0.5003725432925423  0.8631758953878047
  0.1550277703897217  0.3487914033563720  0.8322633416034880
  0.1557462042317062  0.5123167513583324  0.6645438265885909
  0.9867585647214451  0.4962907637775824  0.4803588143826997
  0.1632700836633156  0.3313524952116289  0.5084874699237217
  0.2053999097353517  0.5273648138621257  0.3152989074025993
  0.0147418536025918  0.5145618292808146  0.1654504013126712
  0.2920868039039042  0.1859262306915010  0.1143468019444105
  0.1990365749435589  0.4844038830522587  0.9884659545849945
  0.0159627986785229  0.1836411531840039  0.8460063569180576
  0.1583907618153601  0.0239668988311991  0.8055569789988587
  0.1199442376110082  0.1672937822978449  0.6615160847212638
  0.0107571264714273  0.1962295043645496  0.4859421977521130
  0.1694060017861563  0.9935253529386399  0.4816119997617979
  0.1599463529639607  0.1592129855671829  0.3468018599199839
  0.9987677578797326  0.1979233936734849  0.1905385215968271
  0.1507332805309684  0.0063539856597286  0.1252162033472718
