Cl O  Li
 1.0000000000000000
    11.7780000000000005    0.0000000000000000    0.0000000000000000
     0.0000000000000000   11.7780000000000005    0.0000000000000000
     0.0000000000000000    0.0000000000000000   11.7780000000000005
 Cl  O   Li 
  27  27  80
Direct
  0.6848259353690008  0.6424593138887670  0.6593017432933028
  0.7040644402280170  0.6671378837660299  0.3289105556303143
  0.6407880521694784  0.6690850700422176  0.0157111152147597
  0.6692495787509783  0.3476743560107979  0.6643732291395102
  0.6581674265189136  0.3426408049936986  0.3356704652551158
  0.6510221970050647  0.3545286978542706  0.9840319474202991
  0.6529149304048910  0.9915830516295550  0.6636682566963288
  0.6670509780791003  0.0025996592481053  0.3157862181076518
  0.6504505430167961  0.9950717780867578  0.0025062501558387
  0.3071447929827184  0.6691508588333605  0.6412741165600039
  0.3153134531742898  0.6425338475284555  0.3521014486341412
  0.3532975530263752  0.6538649850316145  0.0083737204374899
  0.3260794750828845  0.3501350592265888  0.6640012491930363
  0.3149952985803232  0.3345691478443292  0.3247420563672757
  0.3277708947818139  0.3315002120723942  0.0007690046102251
  0.3449079234673838  0.0032682887611488  0.6772080757384392
  0.3401346531507505  0.0227974481831417  0.3378202810080233
  0.3491201874585610  0.9894605122890060  0.0047424524429236
  0.9866357092732350  0.6702246533610410  0.6933087993859276
  0.0045970272309070  0.6721962928248287  0.3452288073853781
  0.9834111083652725  0.6786745252100143  0.0273123511302937
  0.0039010077565818  0.3645483509880264  0.6660570173386670
  0.0177115116169268  0.3243661565316872  0.3322626463593280
  0.0075567346320091  0.3219924564618444  0.9841133939437341
  0.0058348344800757  0.9999583836711404  0.6631089102726799
  0.9975743695096796  0.9983796411939029  0.3234446406778245
  0.0138243011866028  0.0147232315967629  0.0093671583848812
  0.8463105757978262  0.8476403835697308  0.8365124958714966
  0.8440982910573903  0.8413823918145866  0.4832921928278519
  0.8301232133730790  0.8244654823028279  0.1727191598806102
  0.8247891796434492  0.5012249896840294  0.8483073532600401
  0.8429263194106199  0.4905836830807364  0.5076050984825907
  0.8363378857395938  0.4904206483349320  0.1546042162394360
  0.8245540403825523  0.1561956441714772  0.8151389524341991
  0.8301633748997335  0.1513823236630667  0.4972267041314094
  0.8324099912677934  0.1786500569618415  0.1381996394690403
  0.5002344496473718  0.8252187538400607  0.8290141121267933
  0.5211921269538271  0.8167760883940557  0.5116952989628168
  0.4922496337023110  0.8268698298279907  0.1882484926949944
  0.5135913556074004  0.5081536627401410  0.8237388632123879
  0.5070439336566377  0.4971350321162629  0.5114790259029491
  0.5005437986646780  0.4925239868372353  0.1865723157529053
  0.5037308911055054  0.1677139862101713  0.8293005868874864
  0.5065387567114807  0.1743487857969242  0.4831150286739805
  0.4950838957955633  0.1605645765777468  0.1747658997798256
  0.1758594343859917  0.8348755767299876  0.8314545726376172
  0.1569130823664121  0.8359674682359086  0.5159467123454003
  0.1589581218784103  0.8472713995435920  0.1490346788802200
  0.1446304567589833  0.4989722195336596  0.8300199316511946
  0.1690991401497958  0.4991254972956700  0.5009269896285609
  0.1672679040876593  0.5014049473311861  0.1592478826375179
  0.1726255003258706  0.1561451183798796  0.8305447845055793
  0.1458666787513192  0.1602316448091542  0.5035881765943452
  0.1785130505801184  0.1596311550876600  0.1625049237453590
  0.6707472150352584  0.8134860010703560  0.8214666600652498
  0.8094664236332536  0.6809152307082236  0.8194819033286432
  0.8588560326865466  0.7387478290908013  0.5753341933819047
  0.6763848083685733  0.8089736592207476  0.4553172603883493
  0.8347513434950986  0.5067496692090385  0.7071795866542492
  0.8391125937948332  0.8206682747342946  0.3271191572115529
  0.6676317817700140  0.8174538141563515  0.1953570829128529
  0.8103368599468355  0.6663177708169962  0.1447559074818736
  0.8309144602248297  0.8857938338915704  0.0133289600200861
  0.6711846194041857  0.5003077522365638  0.8201533133669894
  0.8358410487888832  0.3384536419566805  0.8241105192755822
  0.8314959926531225  0.5203753982910290  0.6474155103345380
  0.6758723035642183  0.5136865608033666  0.5070345376003902
  0.8043244526883508  0.3431090997304058  0.4940523645947112
  0.8442602326971265  0.5293489489174991  0.3215214622497278
  0.6716402826929934  0.4742871719908072  0.1452392830337811
  0.8187045464136424  0.3400807910673396  0.1628939176853577
  0.8540397263791535  0.4826603644733654  0.9913728581023880
  0.6663673819323640  0.1481364868924249  0.8213393739364172
  0.8467128388309306  0.0029151471819848  0.7983422036191246
  0.8326086936597497  0.1733080476064548  0.6684388549759063
  0.6538216416457738  0.1610989333821137  0.4702054460083131
  0.7929998738216013  0.9892389641067408  0.5110501639555178
  0.8315625506670539  0.1841930156494358  0.3118179799248519
  0.6374570745817455  0.1835592165569183  0.1810297214340005
  0.8089731493986171  0.0025962765023299  0.1771678586658023
  0.8471597977566024  0.1088276538205354  0.9833226696068051
  0.3320382594159114  0.8577231939429838  0.8355217369195908
  0.3465243844298201  0.5016193175767870  0.8360976013904927
  0.4820584438866647  0.8104362351400247  0.6452495409030670
  0.4780461373351517  0.6672227006998417  0.4990509767030373
  0.4991716266657835  0.5032641588115870  0.6793060296812214
  0.4865014747144660  0.8442471394215192  0.3521505574363911
  0.3218654904617850  0.8279572679388192  0.1604441151661915
  0.5072164824737767  0.6759635007046010  0.1898230715008541
  0.5272219024531732  0.8492471685191930  0.0063900024046822
  0.1196186109871432  0.3185245572177145  0.8113074132380413
  0.5016999000307544  0.3431393423316264  0.8629778083453786
  0.5018175506320227  0.6808269725145674  0.8587334799095336
  0.3097547659049361  0.5180053419080803  0.5200264271044536
  0.5126390577949320  0.3438654481587934  0.4863178294538625
  0.4990586723720675  0.5086347913517972  0.3497773027060577
  0.3267701359336543  0.5028302361879140  0.1836862525776423
  0.4498962269539142  0.3382621459676925  0.1835895126906050
  0.5221377041882467  0.4977611389808928  0.0231455851488679
  0.3305420806063889  0.1830305985594096  0.7817397847717337
  0.4873002923378745  0.0041264551488903  0.8196503226339689
  0.5241510841096764  0.1787383353982026  0.6545810635241739
  0.3358326734911594  0.1861864362637680  0.4764977289056715
  0.5093035863266963  0.9978382404026458  0.5388906848340395
  0.5134552031737923  0.1622191343109311  0.3275020682187090
  0.3490601071102189  0.1425955018685650  0.1561882483885152
  0.5060398145194537  0.0089231766392279  0.1812544154591344
  0.4745742300354381  0.1754729036891528  0.9802762551093150
  0.9926807540979714  0.8417826305771944  0.8054938703131529
  0.1872480206858472  0.6630013274914293  0.8159047744485114
  0.1712497656109019  0.8523484318909603  0.6611620073943620
  0.9998424453590501  0.8886533993660314  0.4855801852848642
  0.1524202443630395  0.6813216232531415  0.4974958106512410
  0.2568555576352808  0.8251419125320059  0.4144164701483859
  0.9897029592073969  0.8363257641138249  0.1645813596927610
  0.1404452572643469  0.6932666005417204  0.1540236655823344
  0.1609961169290799  0.8164449987116151  0.0038175664159031
  0.0006403770478240  0.5060427534661801  0.8179598138567631
  0.1398433809175625  0.1505914411800053  0.6792440060332023
  0.1461253197926828  0.5012934100268178  0.6680138796278287
  0.0068711781058137  0.5052655550516765  0.4867727235198814
  0.1655907656170842  0.3477783225435085  0.5394857798746598
  0.1451787203016625  0.4651328540089816  0.3393577549356785
  0.9989634504139937  0.5035534675509759  0.1641853617768437
  0.1829055961017320  0.3299920900669413  0.1486039039971694
  0.1592908815840106  0.5156582002671544  0.9899881685208096
  0.9978575203549587  0.1587066302664063  0.8431880541447008
  0.1687817142932080  0.1391217727254045  0.9906917869901840
  0.1373471011477920  0.9957220787793306  0.8445418862528951
  0.9918137331082681  0.1783812540825844  0.4829180671546515
  0.1593543627067872  0.0116788641428126  0.4834040540154997
  0.1529666455768617  0.1904154612146580  0.3148491832947284
  0.9856483232620441  0.1647387033127662  0.1639515281704171
  0.1678343354580464  0.9954872931331861  0.2046885650485499
