Cl O  Li
 1.0000000000000000
    11.7780000000000005    0.0000000000000000    0.0000000000000000
     0.0000000000000000   11.7780000000000005    0.0000000000000000
     0.0000000000000000    0.0000000000000000   11.7780000000000005
 Cl  O   Li 
  27  27  80
Direct
  0.6533146145490121  0.6716821138855144  0.6728528646031409
  0.6419845701519213  0.6844107672541866  0.3267240466916575
  0.6671631753272796  0.6711209861038286  0.0213275212743303
  0.6679229245301018  0.3554880258949157  0.6300806767743864
  0.6644249041409810  0.3489629114050266  0.3440571259748330
  0.6564118698651960  0.3231210337587188  0.9997264722899543
  0.6876261209243409  0.9971507029379940  0.6826876613551378
  0.6443753955501662  0.0048294289412485  0.3287417585519502
  0.6548611167230824  0.0266686589692351  0.0148252304342915
  0.3062050983099916  0.6624917638888477  0.6829106549930544
  0.3245296855251567  0.6495480925080158  0.3376939328819751
  0.3376710066772866  0.6350954084427124  0.9794062760342745
  0.3797605700091432  0.3127690156521096  0.6507447134025901
  0.3402668097060275  0.3389507885575186  0.3295819522643114
  0.3267345411928695  0.3279641414074883  0.9854774756989976
  0.3605237250519343  0.0296147898411496  0.6542769844485152
  0.3441080654005691  0.9884016407466856  0.3788866026848580
  0.3334822242238710  0.0266428419293878  0.0056957009098671
  0.9850424156121947  0.6172888320476534  0.6751017886395669
  0.9826408818230224  0.6571967580943943  0.3177200105515071
  0.9892951068155293  0.6888050536484274  0.0102477469275147
  0.9941070868773204  0.3275328300927560  0.6716316626978905
  0.0075355305567023  0.3370167195541496  0.3351591818514148
  0.0176382603842272  0.3163720551945994  0.9871658223022791
  0.0250331950503657  0.0065654249742688  0.6461176763866384
  0.9959743827880175  0.0030902668226545  0.3290740830393938
  0.0116413767501143  0.0121145867857664  0.9889059864347690
  0.8391907023278481  0.8391962059304063  0.8423148311761892
  0.8262350472656760  0.8140317706485248  0.5069112663654970
  0.8180534317429257  0.8387589635031188  0.1736558371632001
  0.8276238587680531  0.4860060645171624  0.8466487133388082
  0.8343122104307963  0.5000934082432210  0.4996562809053170
  0.8423401433374371  0.4820625831625373  0.1652013094920844
  0.8328791888607712  0.1855191819894932  0.8419619603432041
  0.8460358134978561  0.1759603337916067  0.4772783754183756
  0.8272832954996879  0.1545627723848656  0.1811909411747137
  0.4651830036119309  0.8372201940423457  0.8436579751361608
  0.5148911113851751  0.8381635040938088  0.5160480136794112
  0.4976006429959552  0.8387050369370865  0.1482016781664781
  0.5308518769705214  0.4847458751621456  0.8427739357248413
  0.4903947258526152  0.5088093502062807  0.4841890729524767
  0.5012868800558594  0.4886967248613788  0.1613425742218036
  0.4785756581889312  0.1559756524634487  0.8343204201889738
  0.5273457594994136  0.1725866440963932  0.4930633128683785
  0.4976488206337767  0.1652829040813001  0.1883798139604714
  0.1554576035711257  0.8442510522731310  0.8358938451606505
  0.1701477446870446  0.8504140652565699  0.4942232198629887
  0.1846591325967523  0.8254178873383743  0.1764880142578408
  0.1573509847375109  0.4836817161620293  0.8251598674540184
  0.1516735031540583  0.4924222327689191  0.5062264556564628
  0.1640818055952749  0.5017428648147536  0.1602832937135844
  0.1683605162655064  0.1859692178063199  0.8018370324992167
  0.1802170531760845  0.1611223298372561  0.4870615937581166
  0.1700448307749923  0.1677058242882702  0.1792087552616381
  0.6657908413867455  0.7941043660540711  0.8690748774343909
  0.8272023246798199  0.4707776799975229  0.6727095057665645
  0.9932035174408868  0.8720761886958774  0.8370828206795932
  0.6603958366297553  0.8446183359120526  0.4885950596301883
  0.8220576007270418  0.6654665508399811  0.5429144151095098
  0.8332181327127389  0.8659832964424441  0.3305902211560137
  0.6583304734419703  0.8297127415658172  0.1597268318753936
  0.8220504752948934  0.6936152061735107  0.1893822124677333
  0.8245800037075722  0.8963635480569478  0.9936185741825874
  0.4865535511288934  0.3208775145245190  0.8330070734907137
  0.8379375979195697  0.3319441406018740  0.8782206934801303
  0.6764350224541438  0.4940768309875134  0.8821772516221642
  0.6784456898531080  0.5064115613175273  0.4853636356654830
  0.8627583930419310  0.3300266706165780  0.5090494223203434
  0.8475799270327402  0.5081340940539909  0.3267094517013763
  0.6556893267541032  0.4685911034923954  0.1766426887664938
  0.8143958178678445  0.3264230440356441  0.1632151054020729
  0.8419043583849070  0.4804329644418723  0.0055001083034614
  0.6835163659911166  0.1585721538655110  0.8283149764209982
  0.8065994615060266  0.8530078442577266  0.6683161910221621
  0.8443127544510631  0.0904122031123263  0.7296000491453868
  0.7013443591680308  0.2149603137924620  0.5010582501659229
  0.8477386298396816  0.0058990686537346  0.5138082393456302
  0.8453639176345907  0.1692734396036211  0.3314692403765016
  0.6645709755000230  0.1622388364724171  0.1720128380145519
  0.7971469279946271  0.9960357319017802  0.1876087693282776
  0.8322680211124067  0.1453527667216758  0.0007506913261475
  0.3085106007068004  0.8070564584001694  0.8395436858370239
  0.5364399971328973  0.4967482607620111  0.6808177212411042
  0.5047188282559680  0.8373469943462593  0.6828761614237907
  0.3300686766425775  0.8430266115350857  0.5080820234499696
  0.3352042104073005  0.4978318122734857  0.4578941635690070
  0.5106479570262181  0.8453535509564546  0.3252196291012135
  0.3393958875675264  0.8411642826781200  0.1639054018841532
  0.4697069647741903  0.6768023036798725  0.1246883998433466
  0.4984399055438879  0.8834919407057986  0.9986604519098579
  0.3069280260324788  0.5315872110579605  0.8022138706948827
  0.3384989333104377  0.1480431031826126  0.8164687835326583
  0.4805919935452861  0.6659471531413079  0.8441455814134063
  0.5056543246233139  0.6742918034098627  0.5100376306914235
  0.4993363334906474  0.3490069190456249  0.5091676397173509
  0.5104762584026880  0.5316223119083733  0.3355522951818743
  0.3150419297071144  0.4460232404620434  0.1595572283718274
  0.5093163109226677  0.3525862341378934  0.2150542538193678
  0.4705386565504652  0.4704156594618928  0.9938776997837011
  0.1755305430929398  0.1479282764386872  0.0310688243201865
  0.4936270809817491  0.0007467018146624  0.8460300962750162
  0.5191958440526419  0.1725760369189905  0.6605113327242580
  0.3623748799357583  0.1819041992510728  0.5103145508953723
  0.5107549599646738  0.9974552699325439  0.4656104802753853
  0.5187107073854023  0.1584001212373487  0.3438442941748098
  0.3389024513912502  0.2122644915584791  0.1467017949419468
  0.4741245707645531  0.0143925262094245  0.1589961714396090
  0.5027982408941071  0.1682081267693218  0.9922078575430976
  0.8362525751583225  0.6562239341790892  0.8775633723644413
  0.0929989701864923  0.6579546044829496  0.8387309007471883
  0.1663888970444236  0.8202313824425445  0.6731248455870777
  0.0029230777770949  0.8517455494184808  0.4947857646340222
  0.1490918194120320  0.6757502093319167  0.4992319128383885
  0.1881015260326239  0.8530506370931144  0.3306084598331889
  0.9951661864663638  0.7910702274919745  0.1769744869436082
  0.1935349716863465  0.6512616779688840  0.1841908088373012
  0.1456757516139700  0.8485680925052176  0.0202829445609315
  0.0044663246711728  0.4478430191531687  0.8206642055933028
  0.2069545490609530  0.3339940181203593  0.8236805305750285
  0.1644735525431491  0.4488717129341827  0.6567732743396381
  0.9782434249151162  0.5108224467298410  0.5138271055466597
  0.1578950276762045  0.3250883615263486  0.4759685509507797
  0.1353909392878513  0.5110074245678297  0.3624885946722241
  0.0105338844445090  0.5067779542774303  0.1776979004910147
  0.1202576448747943  0.3141917336853066  0.1814337726634981
  0.1641048114294699  0.4554904701772492  0.9989062457919973
  0.0127631857088076  0.1734661288990953  0.8181022888526768
  0.1606676810968898  0.0252804269142875  0.8240308103417778
  0.1531598440089667  0.1801844802505996  0.6316625631967392
  0.9975176056438831  0.1498921528251201  0.4476612737811286
  0.2018686301661042  0.0001939276279904  0.5276201203424976
  0.2051824621827302  0.1581761761922986  0.3439336454745342
  0.9976922582790234  0.1662617502013329  0.1912257156090798
  0.2125531347017967  0.0050053633507931  0.1627919012906799
