Cl O  Li
 1.0000000000000000
    11.7780000000000005    0.0000000000000000    0.0000000000000000
     0.0000000000000000   11.7780000000000005    0.0000000000000000
     0.0000000000000000    0.0000000000000000   11.7780000000000005
 Cl  O   Li 
  27  27  80
Direct
  0.6908025367323272  0.6685826055785253  0.6517370697468479
  0.6816698379594064  0.6742939228433302  0.3211896691296288
  0.6554218106806405  0.6891274531598830  0.0019062927505659
  0.6754805499449202  0.3401966197841599  0.6609409418704326
  0.6653092789509615  0.3525590016491588  0.3418200421394724
  0.6609026849921008  0.3397331023258251  0.0153726723660791
  0.6451593260581003  0.0109913358096356  0.6556786482872060
  0.6569080705647290  0.9885321330892087  0.3417733624618183
  0.6597322517909078  0.9970786957999184  0.0133908103362830
  0.3458171684963160  0.6185370519134807  0.6851718645700551
  0.3303456690900226  0.6662434395633563  0.3628360994070525
  0.3528289176136123  0.6777563970425291  0.9985977110273948
  0.3323995749067963  0.3268756851108578  0.6958028473938148
  0.3019054985622630  0.3369625845105139  0.3425708035812891
  0.3240695803566377  0.3359500444080636  0.9992699470629911
  0.3199139149685483  0.9836074954158465  0.6693174136711955
  0.3338718268390476  0.0129586749637870  0.3496185847134267
  0.3446073025058471  0.0018145383039442  0.9861571518358132
  0.9989443220564634  0.6460311391391967  0.6871566213066613
  0.0027681528938278  0.6548756627642069  0.3173953157824956
  0.9736246483168203  0.6680403844832787  0.0001987524651512
  0.9991853051332504  0.3211032551197573  0.6671801483953675
  0.9824509826062486  0.3243574318848456  0.2996584552633431
  0.0299346941756415  0.3310241845813889  0.0128935052730201
  0.9770031810791971  0.0182303687531326  0.6632441973269900
  0.9842303619189359  0.9907842801438163  0.3193153768340274
  0.9924899567693108  0.9924117816040585  0.9723691053588756
  0.8185772434920334  0.8476843506839183  0.8307415284121692
  0.8229857807505709  0.8378238861820231  0.4885190869771066
  0.8459774450521125  0.8316382013690211  0.1611953168831806
  0.8379067595525813  0.4886345534638711  0.8373997589299215
  0.8523916295187823  0.5094830416197342  0.4972200898239006
  0.8274977987169000  0.4930722402175612  0.1567496241396761
  0.8432837078167410  0.1895959757484773  0.8241917987930402
  0.8371657146091488  0.1725590472389693  0.4889094877851006
  0.8234905528416285  0.1560932059219908  0.1575606278714748
  0.4924609102639804  0.8234356953747447  0.8198033422978301
  0.5038376343387251  0.8298129571475549  0.5058670851338427
  0.5145962676600069  0.8280330565852145  0.1892739324575242
  0.5287518293018044  0.4821234874112291  0.8376201615016023
  0.5191097431010935  0.5255211748234645  0.5021274883036454
  0.5011779048476984  0.5248682261320483  0.1745867568978829
  0.5082537423689203  0.1585963479687451  0.8471543135994291
  0.4977108153117671  0.1678087625138260  0.4916505929500946
  0.5051023985450647  0.1582124147049881  0.1818095159717555
  0.1690913602796646  0.8331858776199796  0.8233906735012654
  0.1545684239067732  0.8423731507254913  0.4952992595495802
  0.1794562628679854  0.8232938344983358  0.1620900343213704
  0.1627985308292721  0.5102255440379245  0.8420944470658729
  0.1685713656744718  0.5143903186432492  0.4835737941536635
  0.1890823775744772  0.5176276939632148  0.1714212634232552
  0.1759427163241547  0.1636280771423973  0.8348305548155073
  0.1468049416978217  0.1646973170614603  0.5021840464213233
  0.1556287367929458  0.1369222914548596  0.1601720076616878
  0.6583387844663880  0.8562275818881994  0.8408781034098146
  0.8159395380640110  0.6552503957185566  0.8298898773287967
  0.8476958077913529  0.8547908356604601  0.6873558095235368
  0.6817726709006389  0.8858209590752251  0.5341093427351399
  0.8319231779059700  0.6681051206537633  0.5066488583996691
  0.8489400054094458  0.8594792080724617  0.3174874808182105
  0.6756605075920771  0.8166485593117626  0.1834291145534617
  0.8542963870853590  0.6758087654268322  0.1613930476252984
  0.8167753188666893  0.8136547442179602  0.9962161314846436
  0.6824429473475070  0.4619424822089486  0.8487957540597948
  0.8504446051842345  0.3416442970725814  0.8074595027505809
  0.8518439428931946  0.4896119522304987  0.6622137221879389
  0.6888224763032731  0.5085783546493482  0.4804430574034642
  0.8599609437016901  0.3355946837223675  0.4951440384878931
  0.8521647492815120  0.5037540322307881  0.3262808106423593
  0.6837788039336904  0.5106094671803291  0.1662426329396574
  0.8271081671316948  0.3337173955064310  0.1484103381879377
  0.8287173812057530  0.4908975664229542  0.9950685513484814
  0.6619010956864843  0.1765320222147314  0.8400617556039046
  0.8621027838288405  0.0148668813812224  0.8160811137084943
  0.8320286019134383  0.2010169908616899  0.6678889669524928
  0.6624373654264705  0.1897002054363524  0.5036296994392480
  0.8242257678860309  0.0172390619830236  0.4703917041937301
  0.8206496106557370  0.1472666173335813  0.3103989308782694
  0.6670013666591547  0.1529665784408998  0.1400179758637757
  0.8226160679870534  0.9941941802427086  0.1661895666885864
  0.8145321032730640  0.2075072474136258  0.9876439203178640
  0.3379301248162458  0.8381770808982877  0.8122082793942040
  0.4901711769343409  0.6643249574428119  0.8696608007483210
  0.5215146979074053  0.8280332185268543  0.6592682871590076
  0.3426910875682592  0.8199487679879457  0.4835885308428796
  0.4995190961464711  0.6761948342959634  0.4832116521618036
  0.5450668017386635  0.8256643362207937  0.3627126189067537
  0.3554777160439568  0.8186278100326180  0.1999437205467057
  0.5306320931953710  0.6862813288415200  0.1634866089011026
  0.5080326110598605  0.8558902574526289  0.9947729752778597
  0.3305106066500939  0.5116246388344251  0.8298846951963254
  0.4812266948322034  0.3329398124805329  0.8665989701658295
  0.5549376709909116  0.5152811191180279  0.6717605462190751
  0.3544458239155581  0.5290598830495692  0.5096061961391209
  0.4888119197812155  0.3428582925748636  0.5292683808130969
  0.4934289164155033  0.5572085383830987  0.3269628683435180
  0.3543472824277785  0.4723744792428825  0.1889900690057717
  0.5224127857559721  0.3281284858785617  0.2128232630382021
  0.5011387959417022  0.5323254362148488  0.0125276107897268
  0.3365399165672258  0.1671676659261680  0.8073181276990912
  0.4885872662414914  0.0067804097347398  0.8214970899078304
  0.4874469946706992  0.1778340937263250  0.6657444143028767
  0.3226058910885874  0.1638290365959574  0.5195375101084005
  0.4589282217195527  0.0172823623941171  0.4969027651808376
  0.4580808620896333  0.1807917958344663  0.3290887774618594
  0.1842773262110458  0.1663317029391450  0.3238410383835041
  0.5170242586645711  0.0004594489339961  0.1990746000089467
  0.4948082138465462  0.1455800558838441  0.0130463541427189
  0.0088438711098502  0.8324083958076062  0.8302343271965157
  0.1439901126013377  0.6736983824632006  0.8312401467209168
  0.1620134984879460  0.8263302402433889  0.6727333296489701
  0.9983953492283797  0.8769633991482162  0.5065300742069226
  0.1575875828671943  0.6831553693696929  0.4828402390110687
  0.1385055035108109  0.8522867320852199  0.3129145323099309
  0.0173128020981344  0.8361051995595032  0.1230292857202042
  0.1571743078025876  0.6610468538004527  0.1668464525861186
  0.2104964064217090  0.8243069413965254  0.0069850126753148
  0.9903244149649821  0.5207866895295482  0.8569932398632393
  0.1624365204149943  0.3375656551768914  0.8111600311601919
  0.1864799754239172  0.5044081549990925  0.6746602732201907
  0.0052121726415110  0.5215555074641955  0.4655870981698080
  0.1393529441115502  0.3395472135661129  0.4656345875556606
  0.1976713775346889  0.5065750555949922  0.3286280534968101
  0.0125375340795547  0.4474283008059555  0.1546018630213228
  0.1790355587306558  0.1575736055429914  0.0228206062293285
  0.1775529830188712  0.4661012649736029  0.9966476661017151
  0.0081145928712641  0.1860261139994284  0.8378643694943246
  0.1253192435536542  0.9937995645239898  0.8202475482156264
  0.1418292848169282  0.1371185849649247  0.6848504104151788
  0.9953355683779121  0.1461623170495155  0.5005392861573429
  0.1832140376472431  0.9849450017824849  0.5010724790061742
  0.2761272234949617  0.2460408759774508  0.1592671789923670
  0.9967481299501842  0.1625927235114492  0.1659107537917231
  0.2004959636149669  0.9864582692305066  0.1628143689118528
