Cl O  Li
 1.0000000000000000
    11.7780000000000005    0.0000000000000000    0.0000000000000000
     0.0000000000000000   11.7780000000000005    0.0000000000000000
     0.0000000000000000    0.0000000000000000   11.7780000000000005
 Cl  O   Li 
  27  27  80
Direct
  0.6667326438194126  0.6740245401447074  0.6514707471912650
  0.6637140111693206  0.6934610186583010  0.3293630363424209
  0.6647806397794429  0.6579172173753997  0.9859362880697411
  0.6588731302180976  0.3364890743750035  0.6824775105244979
  0.6508517559478660  0.3382882864778821  0.3392751197419819
  0.6727118530417511  0.3397502753587152  0.0028720998398470
  0.6621737842337900  0.9998164249637767  0.6551579154155979
  0.6512392418063447  0.0201666716731260  0.3628894901337187
  0.6687889787607822  0.9666674961967986  0.9907773423491255
  0.3208736409224346  0.6673696699159796  0.6767693511216679
  0.3277491161498930  0.6705864381622888  0.3192346191548774
  0.3124855700517257  0.6711091048045371  0.9962518965085445
  0.3269188413629656  0.3622021881750160  0.6954138945315418
  0.3399123907688362  0.3250969253590738  0.3222856401329166
  0.3747383452481970  0.3101147326172432  0.9872382393902740
  0.3391587548629141  0.9895583847219998  0.6475362131122352
  0.3342826920904582  0.9875289814344197  0.3401559608059169
  0.3587971746012587  0.9931456817658707  0.0057153857514229
  0.9990290328917921  0.6657064483050694  0.6469672311610223
  0.9989504344220583  0.6507358343904798  0.3239188620550657
  0.9924629906572362  0.6578244653012409  0.9877727809093237
  0.9924449942599359  0.3170494379994350  0.6800223942952780
  0.0022628217737634  0.3473612085430354  0.3236284399669038
  0.9962517038806978  0.3384133256664634  0.0024744591019047
  0.0060358995635378  0.0132716862735866  0.6801585872142961
  0.0073027930494060  0.0046779001788194  0.3210429202322863
  0.0064655199798209  0.9913665510589037  0.0157775308532425
  0.8201345340965465  0.8428703187785597  0.8211954235893754
  0.8454128953219822  0.8524927290700426  0.5126621468081354
  0.8414476733022226  0.8398718073772049  0.1637207973471819
  0.8404992620891077  0.4816519205753956  0.8364216623822884
  0.8111517932820212  0.5046828962099829  0.5016001563102179
  0.8201748575648407  0.5210067754370276  0.1728671700673079
  0.8221352420846667  0.1452204008424206  0.8434479862471608
  0.8202533992601126  0.1879628217735211  0.4978664703498710
  0.8055206776142956  0.1497981569931300  0.1847411561895675
  0.5053597431220053  0.8369800155164361  0.8249461539073044
  0.5106568946431850  0.8230948154421782  0.4795248792625335
  0.5120106862659694  0.8323131813425194  0.1682413880990643
  0.5084957429754962  0.5016558830800346  0.8414765087250128
  0.4950983920909433  0.4957518552639436  0.5025838303153852
  0.5172978783763054  0.4870880989942888  0.1520666368795116
  0.4841577363665981  0.1630058337321417  0.8263610380136794
  0.4958068867647890  0.1646426183703650  0.5068752027975737
  0.5033060397322813  0.1664989655080131  0.1604682501198435
  0.1602080304579276  0.8450748303202879  0.8221831056501261
  0.1794125781793615  0.8236922181511649  0.5038316311349624
  0.1614794545142011  0.8413777026851115  0.1734581355961151
  0.1672586455687605  0.5069302008300115  0.8458419695073804
  0.1734396037101529  0.4977139401709869  0.5215563865165447
  0.1681805793237785  0.4948368445140244  0.1511145313727403
  0.1700516429079376  0.1730139080386563  0.8385222073913060
  0.1583605091396451  0.1636764644263466  0.5096935946101320
  0.2066998659311344  0.1673948266590335  0.1641476249027640
  0.6732032244621204  0.8642893678166230  0.8172021046951212
  0.8229176631170519  0.6724237065505053  0.8528566335741922
  0.8341917161922040  0.8828593775868083  0.6629149199589599
  0.7016987587879648  0.8391286571924557  0.4881386360509197
  0.0096873853493623  0.5125165801197601  0.1756184977983103
  0.8359214958170458  0.6626666822709918  0.5097181692539619
  0.6795214180218367  0.8514061006674130  0.1912542465127062
  0.8250969117629815  0.6916383655030703  0.1408100228946887
  0.8121523497031311  0.8171842694750878  0.9717787299911663
  0.6706241823930923  0.4816260099130377  0.8484399992336679
  0.8598363084359032  0.3132803070626907  0.8459417255574579
  0.8475297964366133  0.4767565462624012  0.6704353277666674
  0.6721259481891856  0.4766744823364649  0.5501564541708388
  0.8171471966683334  0.3365531830216341  0.4567696497550069
  0.8664108960967317  0.8853578132046578  0.6614127088233573
  0.6695296593355257  0.4918605191173135  0.1809629362782931
  0.9048435338054763  0.2875751486457302  0.1813042282840370
  0.8242159492428169  0.4783348699686798  0.0000521379524848
  0.6590209829351765  0.1401746333528738  0.8060626251225900
  0.8806099390687983  0.9952261384205466  0.8738398976597257
  0.8209890191586143  0.1909440256621291  0.6735986147864537
  0.6739552814370552  0.1802395820620440  0.5251474423776942
  0.8283366352367234  0.0233834462452804  0.5034943876702117
  0.8060888498573099  0.1636447845930732  0.3359187578022201
  0.6575067881182335  0.1671717115648870  0.1584712971534945
  0.8667731595448215  0.0100648059560693  0.1670720581252919
  0.7994494855405869  0.1576930649640799  0.9922923532001126
  0.3489117306014343  0.8467472016338433  0.8481169256623941
  0.5323003543085131  0.6552363545003874  0.8330286611465364
  0.5342319941872858  0.8182780233098659  0.6328522358999789
  0.3445235170186837  0.8138605792611429  0.5226581564624897
  0.5043548952474424  0.6427606134875732  0.4477581642994287
  0.5048914888707081  0.8180522766640737  0.3345162622312851
  0.1707989226045001  0.8400254899933145  0.9836990503999263
  0.5274394330793725  0.6728286416206657  0.1631213197609361
  0.4919612181605645  0.8387655840361672  0.0048845131721146
  0.3263788469652654  0.5411469308606849  0.7978142896442684
  0.4981379152125612  0.3371789862456895  0.8112062154838900
  0.4960306496254945  0.5112045289546177  0.6605425559076451
  0.3286491270554316  0.4963046025657731  0.5208353413656195
  0.4956464025998105  0.3188669899930138  0.4981790986853816
  0.4873718730612616  0.4696483608986421  0.3437842632442055
  0.3338498625728534  0.4983485084862931  0.1587074687923447
  0.5204514893831175  0.3199785574081628  0.1686201493517022
  0.5156916197371724  0.4836931139734499  0.9881186667439261
  0.3220296410749863  0.1776129898790484  0.8712196819287946
  0.4746725311293816  0.0117247058656114  0.7882722024060945
  0.4700112029712161  0.1600102069162447  0.6641164864403923
  0.1664373180574286  0.3450204635968789  0.5328686173332645
  0.4797460817314957  0.9777323662194978  0.4750426585579161
  0.4601840579616967  0.1225181971005551  0.3569076088743246
  0.3563047713094893  0.1639739208544844  0.1858526831193065
  0.5075351051685812  0.9948420065252472  0.1366168983810577
  0.5209305937242770  0.1706027589646246  0.9721849175786964
  0.9964155761684201  0.8681885986181903  0.8467917572244330
  0.1779595163314189  0.6969484318700191  0.8441670071275895
  0.1571886690704568  0.8040805997541967  0.6889404394247285
  0.0182032992662027  0.8313933528288182  0.5033314743806373
  0.2093293528209404  0.6489377153936693  0.4787935508174850
  0.2004739183779529  0.8312992647361314  0.3238949351777947
  0.8554576294101046  0.8488571392579656  0.3344641372659951
  0.3213329681408413  0.8118897495055538  0.1781716696903906
  0.0100326173344727  0.8304751437315140  0.1681000737756895
  0.0100761568625186  0.5195473168943154  0.8499735865619691
  0.2113919022727350  0.3359099103431920  0.8287074104318165
  0.1569340866914390  0.5158448046996176  0.6694874023784719
  0.0281182166444591  0.5023664425097870  0.4712770700945410
  0.1824835989499082  0.1769838870940833  0.6718468515840177
  0.1903551569606786  0.6461119552365031  0.1926562360160171
  0.8157833547854454  0.5248196913446155  0.3373703621754052
  0.1929039361857811  0.1950833147019003  0.3434053602926328
  0.1812660002461419  0.4971072258177153  0.9931507995065086
  0.2070876554301876  0.3414992855532757  0.1563305701322047
  0.1808646886201707  0.0073684510859120  0.8038770607527107
  0.0217793856470289  0.1970440838331207  0.8567650950492244
  0.9860279903640148  0.1916841394411332  0.4900410454637203
  0.1636775086330450  0.9985215489430682  0.4916806640806390
  0.3296624566233757  0.1422009281200726  0.5136699906030335
  0.1610592159590858  0.1780461635226376  0.0215074752021244
  0.1357667658109929  0.0309478363902051  0.1871350382362623
