Cl O  Li
 1.0000000000000000
    11.7780000000000005    0.0000000000000000    0.0000000000000000
     0.0000000000000000   11.7780000000000005    0.0000000000000000
     0.0000000000000000    0.0000000000000000   11.7780000000000005
 Cl  O   Li 
  27  27  80
Direct
  0.6820348633389137  0.6923014426781893  0.6775728493903044
  0.6594223449014046  0.6533673121965917  0.3274909550820416
  0.7061619004766453  0.6338428184018015  0.0205745264049706
  0.6728330154858256  0.3417663749338298  0.6675467185909593
  0.6428250677010754  0.3161314384603998  0.3402849316596424
  0.6963540670076647  0.3315113801121274  0.9879773342278889
  0.6461753568293470  0.0361880497831936  0.6707655515931750
  0.6676472393273744  0.9902528627606143  0.3463953136101672
  0.6715015718093249  0.0234362918971397  0.0127127835757710
  0.3335281348749545  0.6974304582919130  0.6816046294239958
  0.3320956598579634  0.6622009452463297  0.2940473141967638
  0.3321900718339296  0.6382941892240492  0.0142778381889437
  0.3174561356258145  0.3712940443005325  0.6483179707157372
  0.3157624892293388  0.3280599381871356  0.3359830936989859
  0.3235663353919946  0.3351809574258438  0.0111356238250280
  0.3422145022460575  0.9973893053590460  0.6592803671052171
  0.3578670119201661  0.9868441032116300  0.3289384501861182
  0.3313494530247641  0.9950921420078068  0.0057965793933345
  0.9983805218306420  0.6744247050677146  0.6700091626793774
  0.9928473651984896  0.6731412770873956  0.3148297099209096
  0.0087429239704608  0.6340511158359122  0.9849461308580124
  0.9690068913832854  0.3482686556525160  0.6652561350677112
  0.9971145473319503  0.3155137930464461  0.3377725690607755
  0.0141200860481918  0.3313328596970233  0.0166954788454245
  0.9844281787599082  0.9827831989861673  0.6582167344154298
  0.0108499124855034  0.9911989403693972  0.3362298522725339
  0.0117174793956562  0.0201592434057769  0.9871929914037008
  0.8385478954278389  0.8263455580786413  0.8452570206423292
  0.8152014169936356  0.8235574088673038  0.5070457926527113
  0.8630734709409611  0.8490860508969519  0.1527414725153778
  0.8301212622041678  0.5180321980441630  0.8157313350607130
  0.8220185122599688  0.5135860498397968  0.4968707565156287
  0.8188400836968672  0.4797695585717315  0.1818064341319444
  0.8360769898887446  0.1663596623436492  0.8432680534230895
  0.8314899929432177  0.1621384510768765  0.5139826032762197
  0.8205014429789205  0.1575607758969871  0.1686525220173251
  0.5093651567659716  0.8371600207802222  0.8397561870237712
  0.4962627825781983  0.8333814365002584  0.4848004363978940
  0.5346525462378228  0.8271580192851976  0.1598529068332841
  0.5054219992946258  0.4943855202952988  0.8338663695865670
  0.4891021686085745  0.5106740152740612  0.5090384440442548
  0.5062998849236355  0.4903390845432114  0.1707874796247867
  0.4931176330220624  0.1961800108601177  0.8531395299564867
  0.4684086990873488  0.1702567372971375  0.5289232175020481
  0.5077040808817878  0.1849560179943491  0.1749481652037081
  0.1814206846096418  0.8266989147365456  0.8265032071110434
  0.1641990312959573  0.8320690614518366  0.4850784901933210
  0.1558464458870555  0.8123283755679984  0.1429126473613461
  0.1780262663845421  0.5002763093823414  0.8237999153189277
  0.1532647722663816  0.5017343914211159  0.4889173572486767
  0.1556828443455120  0.4866670173767840  0.1539263994933273
  0.1760771975367925  0.1708070959597808  0.8198394705775401
  0.1529432573833904  0.1507534679785052  0.5057796519424341
  0.1781403542697362  0.1762809460526177  0.1709225389523267
  0.6753889808711914  0.8414446726843614  0.8221837377543608
  0.8045662236872425  0.6614611148651951  0.8387038902487656
  0.8378185102824672  0.8184285551952198  0.6659458849967574
  0.6556437606214407  0.8409110749814309  0.5137719576883329
  0.8102474602924665  0.6690063402291921  0.5021596894985920
  0.7139462731571230  0.8023645922999518  0.1728863444892923
  0.8025364471747897  0.8276388240135742  0.3359008071032951
  0.8347702827977135  0.6251629894244028  0.1789609373374353
  0.8603714746819634  0.7977899029190448  0.9992435184259234
  0.6564586914380032  0.5074392310203314  0.8498553535026375
  0.8301850672102237  0.3221712340987046  0.8123062693802933
  0.8078999542828513  0.5054838666913370  0.6568171133086003
  0.6385983099331416  0.5403129385472628  0.5306570861532932
  0.8430969980296674  0.3254621513733079  0.5039452985037327
  0.8124500285345182  0.5381599649323804  0.3424585933190010
  0.5251578674146817  0.4944265725009719  0.3525544804796624
  0.6589966003305382  0.4836603684080324  0.1545488829137681
  0.8357850091123001  0.4875080207973438  0.0010907522345367
  0.6670350999291716  0.1706356402487101  0.8310774106670310
  0.8294535768235356  0.0051627839850362  0.8534477048969046
  0.8360614434913297  0.1809826381644876  0.6854773017966463
  0.6754193854140518  0.1533649692249480  0.5219739778576900
  0.8173584796349213  0.9956116953852898  0.5028291157518513
  0.8799439032021154  0.1599443746495587  0.3043413976817574
  0.8082022993242387  0.9994185795203090  0.1898596501770889
  0.8542332387694038  0.3407299889249282  0.1648817109360686
  0.8241577613208837  0.1677568340831779  0.0143185930798876
  0.3520988126544037  0.8063292475239725  0.8403689741885330
  0.4960775213423401  0.6824562006904296  0.8591634350713924
  0.5027853464872615  0.8493143886089799  0.6493294177121193
  0.3268338723423610  0.8249667869579276  0.4835138505556001
  0.4868297630343868  0.6835713308216528  0.4716838113458239
  0.4992782978517253  0.8463194399236993  0.3236956098423650
  0.3073056538898569  0.8338335775584016  0.1393384739161393
  0.5038692623674256  0.6493762604852940  0.1557630808430999
  0.5322866193666873  0.8563097816206630  0.9987549805098109
  0.3261561060946552  0.5368953626676807  0.8367137894380481
  0.4814210337234288  0.3416260929884082  0.8098431370399064
  0.4949072095973767  0.5046922149854869  0.6630736071035769
  0.3333863347266606  0.4838807709797134  0.4631857618590293
  0.5306372032805645  0.3530492943137573  0.5093803028457379
  0.4879048126097753  0.3367862849005484  0.1892644336802387
  0.3200785375688820  0.4911476996358240  0.1736558304332036
  0.4860058849422291  0.1710976395041724  0.3577237790762705
  0.5159525378163392  0.5055226517140539  0.9914123998045624
  0.3497641405197375  0.1823734536946566  0.8892301676713671
  0.4995291049662666  0.0130054335153602  0.8478791796729371
  0.5148129544975159  0.1858250980466981  0.6597423461179743
  0.3137076320054317  0.1546283872914071  0.5316281691959712
  0.4921635133661468  0.0209303943121718  0.5099294064606733
  0.3419461649490147  0.1860991033011317  0.1724235152829263
  0.5463483763136675  0.1958007840252655  0.9993313289078783
  0.5292304972269964  0.9877960771408190  0.1653186396014293
  0.6542745845428816  0.2093436597158261  0.2103931416009603
  0.0076529884159072  0.8423575377075542  0.7988589594998819
  0.1476585652471179  0.6798346894263806  0.8365379208172946
  0.1724687936774864  0.8544960352556178  0.6603256599043039
  0.9903014547442318  0.8348915422907981  0.4782388445536544
  0.1623144860702901  0.6668742166004260  0.5056026497302025
  0.1664840784393969  0.7859825760242418  0.2990824441448504
  0.0056313450427592  0.8338238610600176  0.1894438245316564
  0.1672482101878444  0.6444305223223418  0.1389036403707427
  0.1414138527064319  0.8612208237873016  0.9998306152258899
  0.9815608033968372  0.5113475305537238  0.8092999847802314
  0.1672314492281318  0.3253215657873120  0.7860905089732446
  0.1866104485809715  0.5114433595190377  0.6608663020685632
  0.9986066287333243  0.4876257928548420  0.4984669342876883
  0.1595826217001134  0.3125978718813567  0.4758574927413342
  0.1567455053854607  0.5037099579696672  0.3191897659010510
  0.0016453353464596  0.4685557882719712  0.1487814629921470
  0.1520948046474028  0.3223384995698471  0.1453667109699079
  0.1750660136955750  0.4968935914407125  0.9910885861093884
  0.9857216471218909  0.1784100737610488  0.8570243479521175
  0.1670123523109212  0.0050696574208355  0.8203351739367724
  0.1371432289968347  0.1407762334330079  0.6600582537716896
  0.9877459543084958  0.1416378135631666  0.5072604462961817
  0.1995529458849153  0.0022401795643852  0.4924601545011847
  0.1542691950441402  0.1585802592472411  0.3442013282750216
  0.1618611203284962  0.1722205023486930  0.0181165901139148
  0.0620823579360483  0.0388213144678141  0.1479412692797859
