Cl O  Li
 1.0000000000000000
    11.7780000000000005    0.0000000000000000    0.0000000000000000
     0.0000000000000000   11.7780000000000005    0.0000000000000000
     0.0000000000000000    0.0000000000000000   11.7780000000000005
 Cl  O   Li 
  27  27  80
Direct
  0.6706713160467915  0.6558941004756617  0.6695009229268570
  0.6650899569478748  0.6932881254779585  0.3376705599115334
  0.6657954557013854  0.6777381653472128  0.9897304513281515
  0.6646766413978582  0.3336173225549330  0.6452128753138179
  0.6565771707718641  0.3279248107630424  0.2925882745919425
  0.6729784176172928  0.3597050276103602  0.0080264583742412
  0.6736553741567998  0.9848738126406367  0.6753902140537321
  0.6649425090848951  0.9971765503243269  0.3150710980187280
  0.6618650106487589  0.0073721021266012  0.0041877950111043
  0.3201167950629586  0.6617714484066061  0.6694384944247389
  0.3368955683560222  0.6757265262984102  0.3098998966078530
  0.3470373862142540  0.6346904743038571  0.9934111558037545
  0.3174504259647028  0.3366657524667364  0.6869043456097929
  0.3457626221116609  0.3304184691025197  0.3449601603972069
  0.3491500768462520  0.3201386972099377  0.0042257494503329
  0.3520621114119876  0.0328733247797870  0.6938105897488011
  0.3134289697105446  0.9752200615811886  0.3441313835704473
  0.3190284257877019  0.9863072542467899  0.9984044040697028
  0.9939202887041302  0.6900554464655451  0.6539997882004919
  0.9989818053344336  0.6438101367747792  0.3278798315282497
  0.0280221458122072  0.6414146555543919  0.9921090431741664
  0.0008039136762373  0.3233024902973481  0.6507604695808494
  0.0213989933718247  0.3266641558258113  0.3195076309382349
  0.9806426360969701  0.3344566255882755  0.0148294950819750
  0.0094807617571834  0.9943409152063517  0.6498601955201462
  0.0007450094606830  0.0224486960904610  0.3360114070843215
  0.9810853060995269  0.0072456174823684  0.0319188737052216
  0.8241093193095866  0.8321789112432542  0.8384933802009003
  0.8354232909989336  0.8394926005478384  0.5033759662676219
  0.8398897223936767  0.8133545721278632  0.1745793167175907
  0.8365835218768232  0.4825152109769048  0.8042387558265287
  0.8457820499262967  0.4996339807425946  0.4931639669512696
  0.8324898801367526  0.5211605185440329  0.1613452232485970
  0.8384238266707851  0.1618219186522213  0.8343314800596809
  0.8297759811672342  0.1533519154331584  0.5064820474031716
  0.8424728534891082  0.1875331701233769  0.1841485089377153
  0.5037599707849977  0.8257187353508992  0.8382066625277476
  0.4907256120859136  0.8328934787285900  0.5281526322931553
  0.4783875214668751  0.8500852841738005  0.1543947589205884
  0.5004727984108132  0.4989879550562771  0.8322634043494305
  0.4938957816253886  0.5061707145451347  0.4916605817387790
  0.5042644999635957  0.5027731789434701  0.1916318928380382
  0.5257997421281699  0.1676610989629505  0.8718030751074113
  0.4668071557801621  0.1541828076225872  0.4914810694311315
  0.4956519982229173  0.1662963864008364  0.1678792242859666
  0.1662995346012541  0.8379809563117213  0.8262912395884204
  0.1537782070168541  0.8412512057845534  0.4976326655289692
  0.1514059745431215  0.8497197818929160  0.1755773832859896
  0.1727295184991507  0.4999469329613847  0.8201917077277580
  0.1530750260530623  0.4971543708403644  0.5084047400063489
  0.1807823296901958  0.5161730804088486  0.1586689149822023
  0.1623348996199384  0.1537658079002666  0.8387154021889786
  0.1691733509400120  0.1672311236667460  0.4790292957809982
  0.1934405384455828  0.1658235370555118  0.1684151397786160
  0.6607330790724131  0.7954749195678732  0.8316891592949260
  0.8355453140244746  0.6385529443532043  0.8108641931622346
  0.8425467798476477  0.8383464585926058  0.6616397089383248
  0.6438907841711630  0.8203668070700786  0.4978557806231156
  0.8314556398545778  0.6610188651213423  0.4970286636981632
  0.8539409936194839  0.8168127548736089  0.3476640999558817
  0.6908530499864509  0.8403326728039698  0.1795290629361265
  0.8240215469408496  0.6727611724477913  0.1391266480924511
  0.8299723354054143  0.8444188652286125  0.9934783210988349
  0.6730064335209671  0.4607579468242524  0.8495740749582075
  0.8304079584163045  0.3061420812875414  0.8272113110145815
  0.8445665969492570  0.5004753890172536  0.6388897830194996
  0.6699235100398998  0.5040457163485169  0.4806074980310470
  0.8294820570911132  0.3385981818110031  0.5252242011363963
  0.8574476778863308  0.5154957190152423  0.3390023679567236
  0.6656043645664967  0.5151553176885167  0.2394291095051008
  0.8210002017682919  0.3466845554068836  0.1537348973454259
  0.7931650249638819  0.5317195992797498  0.0057821560003930
  0.6715424810977522  0.1484514298371599  0.8346834602136475
  0.8348743898110479  0.9954750934066567  0.8401770874292371
  0.9983296980538224  0.1306086898496772  0.8324449409275745
  0.8371549329526322  0.0088099509491766  0.4773743331937145
  0.8306214784682967  0.1424412593975743  0.6508557722358342
  0.8336664671202557  0.2158008120767026  0.3320874194545795
  0.6658183299579981  0.1501026272813197  0.2000041136707580
  0.8597095167685259  0.0072584804562059  0.2029307229840699
  0.8426139046573183  0.1756335364939241  0.0101792725778219
  0.3486852233693893  0.8075410292029747  0.8166315017489781
  0.5037672986441957  0.6468584857157628  0.8377050482986648
  0.5231953966779329  0.8056466359013410  0.6805384197517644
  0.3296098544697023  0.8697792498945746  0.5074547903476566
  0.4463297973771643  0.6882564367897160  0.4994916340969105
  0.5057641200329624  0.8253818967402479  0.3077169840323245
  0.3115029775464575  0.8249375288808118  0.1727181214521030
  0.5154955980188076  0.6803353043944814  0.1956156774182528
  0.5171657021494067  0.8291353800660526  0.9994597929969652
  0.3299800328154343  0.4991624876585027  0.8229587235551097
  0.5041430032483836  0.3021944096929879  0.8207059534047400
  0.5419415179813313  0.4967844556497970  0.6625185257317631
  0.3226028421453683  0.4957084749099801  0.5027691709435306
  0.4712203893462520  0.3165652120166997  0.4885515451683043
  0.4543453417483652  0.5167455845907258  0.3389669634657363
  0.3408960329251296  0.5198956328814637  0.1539712106832109
  0.4728033688746729  0.3453237193227706  0.1763113027972739
  0.5331467104397201  0.5169331534949503  0.0237093586743505
  0.3382580036138276  0.1486218531702772  0.8885172336862202
  0.5168107260751051  0.9950418299360640  0.7993457701527207
  0.5802986908859589  0.1513254081175575  0.5940999643012722
  0.3183354775112709  0.1453486280198150  0.5200892746528223
  0.4798661700938960  0.9961869082004092  0.4943716467296020
  0.4804887547278617  0.1552377359492385  0.3270106705050807
  0.3289646992196985  0.1119858567408805  0.1593740493670235
  0.5051519806347599  0.0143760369271957  0.1510154923601565
  0.5603999904471483  0.1913538997150821  0.0282958571432675
  0.9939741305038352  0.8606633120813665  0.8327927915697280
  0.1756231726887763  0.6525288722311244  0.8176222607008842
  0.1527778226587365  0.8437719083778664  0.6527234856523214
  0.9963622750088410  0.8140263870203087  0.5019481268300683
  0.1359188882540035  0.6756660006105587  0.5011536816309325
  0.1716201777815481  0.8115437407123335  0.3318244667170580
  0.0039806853423082  0.8386118809401334  0.1410575693551976
  0.1415034963070674  0.6596780693151467  0.1705319902864847
  0.1862587101211536  0.8124488325368189  0.9786967310328895
  0.0033221047508194  0.4893967185304434  0.8202733263141848
  0.1775642456680638  0.3326183450648105  0.8224113608128016
  0.1754998946155271  0.4698288648616137  0.6680097643081666
  0.9938974935205837  0.5069197351143244  0.5010298772473543
  0.1732401002465338  0.3280600320322221  0.4812986244640309
  0.1544405786874325  0.4877681524304366  0.3131541745864660
  0.9906471932334966  0.4842247074113697  0.1418673888887558
  0.2016997240137667  0.3490987004012504  0.1589479809128777
  0.1418809721479399  0.4855282566404259  0.9822687005535931
  0.1867163774377530  0.1684427710152520  0.9923495977483139
  0.1899025589568570  0.9909907563904933  0.8173480125339908
  0.1829212143824211  0.1618565033136575  0.6621556550025243
  0.0128523019301632  0.1551572408329371  0.4918186772645714
  0.1472073338923871  0.0130630938178657  0.4606868545000521
  0.1752255452351091  0.1896378648869129  0.3275810087175265
  0.0305878276959571  0.1872537195813072  0.1695977692095518
  0.1351977115254960  0.0140373764730975  0.1557855339653475
