Cl O  Li
 1.0000000000000000
    11.7780000000000005    0.0000000000000000    0.0000000000000000
     0.0000000000000000   11.7780000000000005    0.0000000000000000
     0.0000000000000000    0.0000000000000000   11.7780000000000005
 Cl  O   Li 
  27  27  80
Direct
  0.6593030156345833  0.6939487809994215  0.6916965805148504
  0.6737315299101559  0.6634029035728777  0.3143171354033964
  0.6651108906020808  0.6549607239517919  0.0126347212507130
  0.6546804724991344  0.3547391828008303  0.6794597843914670
  0.6815634729473060  0.3481567409704746  0.3369691676010011
  0.6547126179146220  0.3076458252281761  0.0039834000114610
  0.6198209961003484  0.0030196694753488  0.6667843288514480
  0.6582552532254904  0.0169814774339699  0.3413534540989882
  0.6528765640887033  0.9723447618844226  0.0072430065658644
  0.3536482110142437  0.6822420198628945  0.6419124006563400
  0.3026894684427269  0.6436749705931689  0.3545641672437449
  0.3345506156245029  0.6500294390801861  0.0112511639954437
  0.3246352933921472  0.3108816823452691  0.6779940910956249
  0.3388184255981098  0.3449591223230642  0.3442141126795175
  0.3302340409746306  0.3208818215114366  0.0153109725845000
  0.3232305306382559  0.9715991370289911  0.6608396131983734
  0.3182264529995887  0.0192194476366706  0.3262043804974094
  0.3488766005994177  0.0127816146299230  0.9810966957166350
  0.0055307864567030  0.6525301823664019  0.6402315678921084
  0.9975705318711970  0.6842824845235701  0.3409734580413472
  0.9818620049391841  0.6348814990700856  0.9953587602388170
  0.9964272226294906  0.3195095482990174  0.6894782229629246
  0.0225089820229183  0.3459515006913674  0.3412694063879650
  0.9975154337586150  0.3563626477391854  0.9856065540393777
  0.0138951910749674  0.9860661592552564  0.6688238218622853
  0.0125044071740249  0.0037493259994839  0.3304636885349300
  0.0028257645458972  0.0077384091077236  0.9889805385189824
  0.8581203456696551  0.8198394587224375  0.8298312607642179
  0.8232008698933470  0.8425963076463614  0.5136141365753667
  0.8386488067910588  0.8586683676236164  0.1658838474244751
  0.8307118850859498  0.5023900396260139  0.8232535152414145
  0.8309308301828729  0.5052965276905885  0.4925767839821614
  0.8522530381203745  0.4692359706352894  0.1701526796546827
  0.8379401501755732  0.1509674406037278  0.8126128968900906
  0.8424209134054330  0.1698958980721167  0.4769369867267720
  0.8380188538124850  0.1715948885427036  0.1392283041306655
  0.4985745616925061  0.8253785105679731  0.8461001608045722
  0.5201170507454584  0.8342629528071783  0.4849333410136642
  0.4983890170587783  0.8351348465955176  0.1709909705527769
  0.4994804227397802  0.5128898092361774  0.8403461314322870
  0.4952726931145155  0.5048408239163710  0.4789983418589737
  0.4974555044765192  0.4862483852290823  0.1460711683604219
  0.5063347645832529  0.1730569786370615  0.8432394617386331
  0.4912349212401539  0.1832466300071303  0.5121378361021219
  0.5094468375594726  0.1439538089148696  0.1657194564174379
  0.1567546869311225  0.8239132626116401  0.8502716155025359
  0.1522749864432734  0.8420763130411686  0.5106594303875606
  0.1535916327024433  0.8256625562040701  0.1718931474277471
  0.1991120005215779  0.4986621835646974  0.8241335061117410
  0.1716911918878425  0.5071780466318632  0.5177568871176873
  0.1607337144756698  0.5119673086854204  0.1701604123679801
  0.1776554012658005  0.1735910419222064  0.8430703946667484
  0.1774205049173632  0.1896391345367804  0.5034465902391221
  0.1566096378286813  0.1752714293469287  0.1469655416726273
  0.6536258680557626  0.8350025402758532  0.8482823244000169
  0.8593376609755519  0.6696895185128455  0.7822438192487285
  0.8241490381940022  0.8451355525574242  0.6657130039337734
  0.6773423426513531  0.8577903200529670  0.4943664415282956
  0.8229678358737667  0.6685295710328252  0.4930065770940211
  0.8135097963466159  0.0217756632825979  0.1715229285966053
  0.6813514913408913  0.8341525086088781  0.1484223281782838
  0.8443527152258459  0.7362834025176090  0.2365195619659461
  0.8425391308024406  0.8338066012664018  0.9997198610904562
  0.6435745958168484  0.5867662087798762  0.8319167452007403
  0.8225339942209134  0.3421230788717748  0.7974998553033532
  0.8014644152414006  0.4966561719878757  0.6572462496688577
  0.6587103092331490  0.5030652552928939  0.4930388844511485
  0.8297807206574668  0.3566862881061981  0.4897953148634629
  0.8606103603222385  0.4761769917414309  0.3152470650268763
  0.6922490301036568  0.4784261182049065  0.1622981660014945
  0.9972299955610542  0.4982805680906591  0.1351782854197988
  0.8202064070329856  0.5077301056817238  0.9856363032246649
  0.6551712771237648  0.1582569803612865  0.8394492986314279
  0.8388854035267131  0.0003975514045892  0.8073813722184140
  0.8451057438506190  0.1823128340270016  0.6349451045191514
  0.6521703365978140  0.1701951054942341  0.4847480392923962
  0.8611931882836488  0.0166529762874269  0.4626371350839698
  0.8498420509879825  0.1802999399304911  0.3204104932390439
  0.6591322481754815  0.2055339291466393  0.1831927063111576
  0.0126175282271446  0.1601976484864747  0.1576845802629935
  0.8357192825282315  0.1196363385301607  0.9698563948216774
  0.3533648941155253  0.8642169740258965  0.8319506719742649
  0.4713603096202542  0.6821621826345046  0.8167045143596643
  0.5150175085101668  0.8561681506477297  0.6714691385473756
  0.3206417720708435  0.8521293261527100  0.4951561094490591
  0.5062392190158086  0.6731936117134565  0.4804539138023323
  0.5262411977353608  0.8260142934455771  0.3193380752153012
  0.3302486359649118  0.8383576471679072  0.2142724445957967
  0.5017793867428847  0.6521290934101853  0.1514731366079209
  0.5006297630423976  0.8098139756896511  0.0164725344202413
  0.3507644757500519  0.4884550424975372  0.8641419169459381
  0.5308591660194871  0.3420767635628102  0.8342826315864658
  0.4932668839647435  0.4852017968968774  0.6709777266415962
  0.3422310015295649  0.5077159357882469  0.5008038646202676
  0.4655954706435164  0.3476984056446114  0.4968609500613814
  0.5124566443901991  0.4871063115509945  0.3078466559742132
  0.3342639789221700  0.4901643769903623  0.1812111884073459
  0.4874148799004177  0.3147752249467406  0.1210762556112868
  0.5178105969415163  0.5344065900538219  0.9871930874276895
  0.3436500961185729  0.1767218191578157  0.8537161141797243
  0.5109822872166311  0.0291406276017761  0.8403655644290553
  0.4991801424542994  0.1847487804146179  0.6655207387219967
  0.3268400073609252  0.1588644943014043  0.5039633055261102
  0.4783331927440138  0.0013185169099106  0.5319730149327460
  0.5129935618967443  0.1954876770985569  0.3198346287681421
  0.3438099325169925  0.1524171624053509  0.1688739884673260
  0.5072521639723583  0.9965492438158507  0.1794255996449100
  0.5285412953299434  0.1545416646556971  0.0017965258753120
  0.0072901223285503  0.8157672742496318  0.8077464696451991
  0.1939350501824923  0.6579741339840025  0.8476262178466261
  0.1647581666501630  0.8230423404731391  0.6622321898438746
  0.9879254832771311  0.8117744411802972  0.5015630065419409
  0.1559381771835728  0.6693413439874126  0.5140329986265443
  0.1571338834019172  0.8266257850772208  0.3446187643518082
  0.9837678771197030  0.8923144962866791  0.1722368078299722
  0.1724859204848478  0.6654271335841698  0.2120207270660853
  0.1791017627783991  0.8053594470054285  0.0127584687016836
  0.9977913310733785  0.4859898858866535  0.8270413301948435
  0.1812767604562855  0.3406073456092543  0.8333144634933030
  0.1881224991501473  0.5163973436966328  0.6818403264955885
  0.0113438675948844  0.5094919902366432  0.4946775314182288
  0.1747791962878565  0.3359700455418845  0.5128770996875175
  0.1329828991442096  0.5381317335926727  0.3590184530155079
  0.1721654379798099  0.3496157136882676  0.1507050474106523
  0.1899577837532772  0.1746165778412456  0.0051930828687084
  0.1582368881528651  0.4945231576800909  0.9995928820023400
  0.9919566946173298  0.1728958669482290  0.8619621015042696
  0.1612939009715746  0.0025831629020160  0.8428677247046186
  0.1619539548524342  0.2031041567840379  0.6666236017740100
  0.9977114919472350  0.1462461535534499  0.5049998129912415
  0.1528255272902615  0.9968577666777605  0.5236293767994398
  0.1881317905517272  0.2239228476781896  0.3287684227220570
  0.8526623458577199  0.3169656070804020  0.1512478859084004
  0.1796620403664763  0.0200149366002811  0.1690601201394978
