Cl O  Li
 1.0000000000000000
    11.7780000000000005    0.0000000000000000    0.0000000000000000
     0.0000000000000000   11.7780000000000005    0.0000000000000000
     0.0000000000000000    0.0000000000000000   11.7780000000000005
 Cl  O   Li 
  27  27  80
Direct
  0.6853690978203156  0.6668675243158914  0.6530567762720604
  0.6638812640707741  0.6703785405216013  0.3068660156833781
  0.6864920821210662  0.6814254299616133  0.9819145387912996
  0.6854657769792381  0.3318915866476275  0.6530942657616594
  0.6615917736535943  0.3004491598180943  0.3359096212462045
  0.6248432885126959  0.3446327702506743  0.0195605829400976
  0.6609781362952240  0.0154868568646492  0.6691250711061917
  0.6719164438657930  0.9800892661093867  0.3116310674617947
  0.6461116913403948  0.0019535153299819  0.0076012295354849
  0.3319153559029913  0.6191336470726706  0.6564885625305292
  0.3148084888478223  0.6955310326075522  0.3438169481166516
  0.3316008652386236  0.6751686527687670  0.9966664971745347
  0.3356543859374496  0.3277759208445529  0.6681036646989656
  0.3422146417631614  0.3085736504274277  0.3494993183133538
  0.3404346602300015  0.3321967859104153  0.0098230106348882
  0.3224516889038597  0.9846552245586075  0.6696758346229342
  0.3164078447245615  0.0014819123343280  0.3443132182716232
  0.3591428062188816  0.0040462237236932  0.9865134941147857
  0.0111194115562509  0.6685686807559098  0.6553600722140278
  0.9852679995959038  0.6755093374933621  0.3142330040301406
  0.9868168018473260  0.6698615013513335  0.9639587761909718
  0.0241168488266443  0.3488078686355321  0.6598139531316914
  0.0265613224537279  0.3407699763180476  0.3246337665703104
  0.0074131835600227  0.3245654075940786  0.0216001796947978
  0.0061781650597555  0.0116761145175071  0.6816601637299691
  0.9948796395031752  0.9815569634330206  0.3603728087426185
  0.0237989244934466  0.9864531676969186  0.9997625886933291
  0.8263530602500210  0.8639232127085035  0.8407658005002502
  0.8210101197302059  0.8373339339094032  0.5133998850945829
  0.8375033899124148  0.8164780369235222  0.1636467120722795
  0.8339339532601702  0.4973722787358772  0.8216076186945434
  0.8514740142016335  0.5040699015574953  0.5015387935753873
  0.8189243923812239  0.4911538412262386  0.1573469899808457
  0.8254136367979117  0.1884436619266315  0.8435603464063572
  0.8509260036927662  0.1636303161196980  0.4948620612252952
  0.8327970419784023  0.1771998109672902  0.1609711123005587
  0.5095882899209920  0.8361052826887250  0.8123257716714254
  0.4860910033347844  0.8498597148888961  0.5040759332451338
  0.4817039638289220  0.8375739314194922  0.1662670998662028
  0.5028148784119775  0.4897000506409170  0.8247260478801227
  0.4961503726556855  0.4890158067276219  0.4995806357531076
  0.4976618954355729  0.5123383987699641  0.1765942093243502
  0.5060109990992203  0.1693685865461666  0.8258699226523991
  0.4887750645571815  0.1607336356456798  0.5161232576500260
  0.4873390065814112  0.1704893340280181  0.1701088110216063
  0.1821000680919141  0.8383701174912552  0.8343629519483619
  0.1691770645128535  0.8412039342449982  0.5185399532252186
  0.1536635108869911  0.8315388523314448  0.1747258481413041
  0.1618355718529970  0.4878250498506418  0.8412840947182260
  0.1763837306362772  0.5120720857434180  0.4865628355866865
  0.1588943371853464  0.5280759682903441  0.1602882954979636
  0.1716581723752512  0.1581475187512657  0.8581608427033299
  0.1595960404316757  0.1635962577685910  0.4926173476715023
  0.1647878286735021  0.1348737622346564  0.1950317913186412
  0.6606470061273735  0.8776979685844611  0.8369505364388863
  0.8311359256088087  0.6693684295437470  0.8080578807269989
  0.8230539041944961  0.8255944605616496  0.6852943770381081
  0.6476615942888996  0.8418028753995623  0.4928188030713342
  0.8438619474258351  0.6834593359858796  0.4890660889683182
  0.8554119490550975  0.8504337170309407  0.3227996358013636
  0.6683834440824892  0.8277145195382556  0.1902942291335697
  0.8359396814391222  0.6588921414713451  0.1599515176154273
  0.8250672436305159  0.8168011104947959  0.9941965324467829
  0.6724928751324338  0.4734011104263918  0.8317847600729423
  0.8609272764504120  0.3292968767249549  0.8285349152467171
  0.8632603696540907  0.5047054415226399  0.6711730255677050
  0.6935218067603730  0.4895817522730899  0.4941251862790858
  0.8713716215343756  0.3268112952247595  0.4832607240962364
  0.8495993777800477  0.5374109726567053  0.3183729408364707
  0.6685515799899451  0.5202689642657135  0.1455869399234929
  0.8592955524884303  0.3505505226207329  0.1945433550904919
  0.8425986406942533  0.4719616516761870  0.9844719654469303
  0.6466082044078258  0.2107147669021669  0.8533991916993475
  0.7906780457535236  0.0490518692134021  0.8779801512532598
  0.8304138278372253  0.1565973526475963  0.6562675931631093
  0.6589096557308741  0.1913638543024689  0.4851294091625619
  0.8276992001303278  0.0176339309962027  0.5323819958524869
  0.8775184403538411  0.1655323510424566  0.3189477931721241
  0.6776254939476417  0.1601990055647959  0.1790054798546117
  0.8326176916123945  0.9983301677681725  0.1363986850467902
  0.8186204279234394  0.2078865168922897  0.0114303851531326
  0.3506932177677779  0.8216268094172937  0.8247590839746287
  0.5130392662637697  0.6553758216769341  0.7915042872839883
  0.4881354355656336  0.8660757409838764  0.6499919902546437
  0.3267726562207099  0.8191997900625678  0.5229224583651685
  0.4918083934110795  0.6505668837141488  0.4775165731639749
  0.4668966680580063  0.8762468095507856  0.3551102317615223
  0.3201206604560874  0.8252108208171145  0.1788697930032177
  0.4989154046979506  0.6810197661540742  0.1894220317046557
  0.4885453503412158  0.8382680942582215  0.9987873871102257
  0.3539617668533927  0.5247545857447653  0.8399374690129997
  0.4943512820090367  0.3303612988802357  0.8366915917569482
  0.4959080269918203  0.5113277614817806  0.6650107413216448
  0.3238957832335019  0.4865461562362355  0.4940881421289962
  0.4669452100645173  0.3168834427580292  0.5346992997462914
  0.5157301695204457  0.4938463234139018  0.3361603473899260
  0.3294856037830949  0.5292549034276233  0.1646580072483744
  0.4992593687407503  0.3410539814687349  0.1766031565999455
  0.4949444337499802  0.5149491409149706  0.0150334955450898
  0.3501050457322561  0.1698479034357281  0.8473241939971051
  0.4693392338101469  0.9994496048511696  0.8223697970219614
  0.5396962771536895  0.1529793031393734  0.6700579764073017
  0.3175049588483640  0.1541829951048273  0.5037798634422861
  0.4900453347792720  0.0155320398473046  0.5047189225257062
  0.4937577658994036  0.1598307502760358  0.3515618070370335
  0.3093544968485580  0.1769618377276979  0.1844822448969638
  0.4450565707566287  0.0044335530175006  0.1547043554541636
  0.5191758017891118  0.1705722279048581  0.0135758942705583
  0.9825055358468313  0.8515745958828820  0.8426214087791671
  0.1895235943136495  0.6701624698887831  0.8334589127445348
  0.1832584366409468  0.8333667685899668  0.6710291404207995
  0.0112848191266282  0.8508157373590783  0.5054073769216345
  0.1662641797535093  0.6790633087190118  0.5101233603832112
  0.1752506452257483  0.8466388576161834  0.3376536719780480
  0.9728840605152842  0.8284516778823344  0.1218588966220138
  0.1433250149072998  0.6961983131340851  0.1776836514629702
  0.1721220339595705  0.8363992877356660  0.9915917758166013
  0.0161947194781899  0.5285559633105220  0.7933633773081594
  0.1633091901678336  0.3321115641225042  0.8538905226343071
  0.1860318896484782  0.4845861765705088  0.6703323865158347
  0.0121330447647695  0.5087556829032611  0.5049146694827372
  0.1687021301689173  0.3253071003040702  0.4779127229001796
  0.1462302782882240  0.4877921756977754  0.3403741093412708
  0.9911059672420885  0.5377068400325032  0.1570786020770404
  0.1577622031819509  0.2071313627834950  0.0370226942854091
  0.1647007040713241  0.4905804058799327  0.0049660373658009
  0.9773306388771309  0.1659383488546277  0.8466478447387470
  0.1791693697521988  0.0044848021695086  0.8297323927017463
  0.1871123035406830  0.1597198101314641  0.6690833711339595
  0.9993563475499041  0.1519316014583953  0.5130766090962597
  0.1472207639636128  0.0071893246548279  0.5024619418927033
  0.1671178449860260  0.1333809841995685  0.3477968663402176
  0.0159168693749817  0.1297160121012320  0.1318117488293784
  0.1669380290378039  0.9916979026313398  0.1495933862119181
