Cl O  Li
 1.0000000000000000
    11.7780000000000005    0.0000000000000000    0.0000000000000000
     0.0000000000000000   11.7780000000000005    0.0000000000000000
     0.0000000000000000    0.0000000000000000   11.7780000000000005
 Cl  O   Li 
  27  27  80
Direct
  0.6341176602902772  0.6587089587706075  0.6597584791438245
  0.6696358343086902  0.6723260239748723  0.2991472811188512
  0.6841887197635803  0.6578720848618610  0.9969520268920119
  0.6496389972361996  0.3499155632305414  0.6553407112118220
  0.6467298776199790  0.3471800855375281  0.3216781404845235
  0.6798981569895904  0.3357676938166315  0.0054884002474009
  0.6902206409896530  0.9845113342133800  0.6704605543474285
  0.6688606601646832  0.0126001546413650  0.3519913482601764
  0.6476060223763617  0.9672378962648827  0.9830202761873442
  0.3255956182102940  0.6622837394969635  0.6699729885555927
  0.3463378524077853  0.6566897084647373  0.3315946772791771
  0.3221810180083422  0.6530754949491057  0.0236883196011040
  0.3135103994617035  0.3472524329650802  0.6733986615171615
  0.3333386957726387  0.3441815741361733  0.3435324886501978
  0.3703693844634824  0.3375510963669309  0.0029353178660316
  0.3466928284820869  0.9914473053972168  0.6711549600986172
  0.3318766461636908  0.0194390968470341  0.3496693075734096
  0.3412049097092980  0.0187895223615021  0.9759666031628922
  0.0262298272904607  0.6710637293785388  0.6795250352046105
  0.9948711584482359  0.6701967748102112  0.3171325803560642
  0.9923855181176792  0.6496362998606189  0.0316948584989327
  0.9775012513588800  0.3377618431683426  0.6633199401703120
  0.0024529693385381  0.3344581325042001  0.3237227548997173
  0.0145448257966041  0.3092011880606193  0.0022842795798967
  0.0060054508276192  0.9786473401418685  0.7069292853056827
  0.0037078152520282  0.9797189990641750  0.3391424937094101
  0.9739224347432213  0.0316088883518077  0.9893767803313798
  0.8301490678115581  0.8148628043025978  0.8238705012211393
  0.8250115502617481  0.8240291869365839  0.4866365505419191
  0.8269375221831302  0.8354402426389526  0.1635677666680033
  0.8416260337612995  0.5174151210132669  0.8309332619549524
  0.8191837564725630  0.5161759031005960  0.5007759989905627
  0.8373167667279201  0.4924657847143651  0.1704508632738817
  0.8231720551759850  0.1780026706682012  0.8232385239720689
  0.8350722556011769  0.1751188341904846  0.4971127981289110
  0.8343509675377923  0.1646908452121341  0.1761333346841086
  0.4961696582661156  0.8278370826533400  0.8176125094659950
  0.4941990309375762  0.8287786113467660  0.5094954631842867
  0.5031660634130469  0.8454474262664488  0.1624107138947934
  0.5095602480872093  0.5095510325606293  0.8402088742249402
  0.4918508366759918  0.4855829411422987  0.5087589121213567
  0.5029599521910726  0.5131375540558660  0.1532742904641587
  0.5053399274994551  0.1657559252553264  0.8267955720888737
  0.4962458922930213  0.1672309605595107  0.5199177842052465
  0.5045701784003792  0.1625099265430448  0.1691357352175843
  0.1795782262197192  0.8181438228944723  0.8487289477747391
  0.1742589089366006  0.8089002750691523  0.4877494539755959
  0.1903115764024972  0.8620472540476037  0.1479809648142177
  0.1671298837080778  0.4960310513693865  0.8536671961368537
  0.1498965301109224  0.4962448548192481  0.4989327792470857
  0.1539525305411067  0.4831356385971960  0.1634477173061964
  0.1791573398980449  0.1796224919196621  0.8289416226986571
  0.1602323844176154  0.1759553437305417  0.4919696935925302
  0.1749756828767778  0.1767634527555301  0.1593736198977715
  0.6866108808691139  0.8357122236228894  0.8300121379081330
  0.8236182043934583  0.6644419762151372  0.8710403762185688
  0.8359592909328317  0.8120634001472988  0.6533131613969154
  0.6586806443221785  0.8695696861258080  0.4865371183751210
  0.8063721484989360  0.6717471635836353  0.4698089923298849
  0.8056946656490996  0.7996927592586732  0.3129740405038693
  0.6709170760768728  0.8504307753752296  0.1696717215597011
  0.8214780646535249  0.6399085465324876  0.1662902890298377
  0.8171132516377162  0.8360830699778854  0.0098786336725565
  0.6796998594517335  0.5297019975887388  0.8459505960326058
  0.7950565573931915  0.3210378668776246  0.8331437653373510
  0.8202788868112788  0.5260196471281883  0.6538784186904144
  0.6455093234812876  0.5008658999945295  0.5066368288742541
  0.9665980975329119  0.2397093584127771  0.4838318832833285
  0.8546922949634115  0.5012915231091660  0.3551086438542776
  0.6602033410752077  0.5002457039997498  0.1803965090782780
  0.8171971374070995  0.3328477848386637  0.1745890187221747
  0.8573597976531455  0.4804866782252117  0.0152380517542148
  0.6783416549192665  0.1397381283815027  0.8133732012209816
  0.8380988638770259  0.9692400009996458  0.8455482520286813
  0.8223931968596742  0.1471690634332561  0.6621449321177965
  0.6720977116013691  0.2012949188957979  0.4912805104592230
  0.8488801285424610  0.0089784133698238  0.4957539053444748
  0.8137465659184214  0.1643502819437690  0.3270619915110769
  0.6598450856827014  0.1907146035625706  0.1519177154694413
  0.8314058159067306  0.0121073143597164  0.1962540773537024
  0.8323757653579301  0.2194950539608257  0.9974948800973503
  0.3413518312619486  0.8164750142969913  0.8472374652727692
  0.4784678985973757  0.6643731510182492  0.8383727799136116
  0.5249470115305107  0.8299509068768159  0.6690394759733338
  0.3354558600424345  0.8373586842740870  0.5120178661648171
  0.5017555112455349  0.6606595053358197  0.5002070980101697
  0.4656276269535153  0.8166718543600905  0.3423839580557790
  0.3484600166257077  0.8295879956621673  0.1216796182505685
  0.5014267697168706  0.6694392118195255  0.1530401937025676
  0.5300637600650244  0.8167641610947403  0.0067513596900756
  0.3450798492649049  0.4756857563735934  0.8417722588149531
  0.5155584044813970  0.3570901851520023  0.8088438554992009
  0.4884059331447044  0.5087010413790641  0.6784714428964870
  0.3147630180450628  0.4852778026076259  0.4933333636553385
  0.5121445532595288  0.3331606965720438  0.5124912215777659
  0.4970492037969325  0.5188678994633400  0.3209656377550942
  0.3634685653694054  0.4944351569951965  0.1342783033319999
  0.5185879681921710  0.3132017538432514  0.1452424507154594
  0.5021597985491363  0.5072985862935392  0.0002416290233769
  0.3420535243869254  0.1936847144488566  0.8175563157170065
  0.4977600061391446  0.0082262134307852  0.8060121439867743
  0.5055838925797176  0.1933593736946266  0.6681123600858442
  0.3370131920636623  0.1715808951871687  0.4935991098861455
  0.4918090557329400  0.0044045289527317  0.4945437154707265
  0.5034559794335844  0.1658530801178156  0.3338272249672848
  0.3299681234539902  0.1928820507115044  0.1604177183772654
  0.4851566551142182  0.0123729859455489  0.1352725845145700
  0.4905665585020642  0.1716665420718841  0.9804216303237246
  0.0039337946889275  0.8072628021789600  0.8165218325223719
  0.1875813010846604  0.6540584402168943  0.8399332495541094
  0.1722383023694976  0.8202171617080144  0.6824460575313513
  0.9734204055386867  0.7989213502577902  0.4876180788203600
  0.1519950609707959  0.6588031278341142  0.4866532305308119
  0.2252277931033058  0.8394449784188079  0.3157256921181513
  0.9673502660856365  0.8482463445968287  0.1935358869307310
  0.1542445011961985  0.6520997155988755  0.1910753456565797
  0.1801182408601243  0.8088817327514025  0.9944154654045261
  0.0018614480842211  0.5204128631918330  0.8586047967324091
  0.1381523402129113  0.3443117752145212  0.8215150600711768
  0.1711192451535107  0.5100920795789879  0.6761198883458782
  0.9862820269104419  0.4838934040149314  0.5356719122582895
  0.1553529815988401  0.3454356097088803  0.4805687187572350
  0.1407384065005630  0.4978222068756883  0.3295242129297404
  0.9877248383586570  0.4792700106858740  0.1758490866209617
  0.2212425915337435  0.3513397994666110  0.1411729281583570
  0.1499016009085166  0.4944902171527069  0.0074547108191061
  0.9815367800884973  0.1678225434908194  0.8378910035353967
  0.1537322291829506  0.0091297845220600  0.8363869705563469
  0.1685236141877621  0.1894707703131671  0.6372120733807377
  0.1307792486906012  0.1681632788221767  0.3201756661937563
  0.1764398782124523  0.9917480259615307  0.5212006858752363
  0.0005471072398351  0.1847906974102020  0.1653095502168905
  0.2279360443581384  0.1795166225726846  0.9911866717262975
  0.1640161508300508  0.0207759883415091  0.1250100796493249
