Cl O  Li
 1.0000000000000000
    11.7780000000000005    0.0000000000000000    0.0000000000000000
     0.0000000000000000   11.7780000000000005    0.0000000000000000
     0.0000000000000000    0.0000000000000000   11.7780000000000005
 Cl  O   Li 
  27  27  80
Direct
  0.6595010362732053  0.6539661954403850  0.6907359633643099
  0.6562860088995233  0.6724973392170337  0.3690611225184804
  0.6581640056101337  0.6852170857955202  0.0234959095897032
  0.6768180226059319  0.3277255112757195  0.6445742560450576
  0.6807536093056200  0.3093791631527148  0.3414294658698087
  0.6725264881821038  0.2983849047456169  0.0107357712237930
  0.6408374647206625  0.0120642188708671  0.6646553837410308
  0.6336911016153354  0.9895873094768548  0.3314850751131203
  0.6654271286377103  0.9896813653077305  0.9915930750873858
  0.3429207984426557  0.6728327203529273  0.6756745811606482
  0.3542994253316674  0.6617855475150455  0.3229907907694493
  0.3362177100906965  0.6636420464729810  0.9788917481052500
  0.3110735579991920  0.3077802931008947  0.6605959926577645
  0.3221090305536027  0.3346134560094374  0.3239557200298173
  0.3291438361118564  0.3380778735083131  0.0156094921683179
  0.3325317564286618  0.9897576164144186  0.6638330036090407
  0.3362236412032519  0.0024221567083683  0.3490297109059061
  0.3509141163238027  0.0076522903266631  0.9962122304163832
  0.9897583224812565  0.6505557045075414  0.6581099860607648
  0.9957731025643138  0.6906892557438448  0.3390591665744004
  0.0014153012711549  0.6473847252598677  0.9999276193040955
  0.9838951064887173  0.3592847587556173  0.6588130556896793
  0.0074170366704684  0.3565464875693187  0.3214442076245591
  0.9907300267219432  0.3421265157152421  0.0347082907338351
  0.9840222534489532  0.9947749210793204  0.7023841016272523
  0.0215467490106075  0.9856094288080607  0.3202980251839164
  0.0179726704530802  0.9961985196701836  0.9799600138441366
  0.8387777188349231  0.8368834475196015  0.8286580952115236
  0.8316150401093928  0.8346076006855696  0.5169209245443335
  0.8457399138104602  0.8286386747573543  0.1458107868601004
  0.8058434856201404  0.4939882195422551  0.8523527481711598
  0.8213406527763321  0.5067542004588864  0.4897320163387004
  0.8201905432509259  0.5203195657946655  0.1805175927780252
  0.8430406705593378  0.1741169429808724  0.8342183614118648
  0.8443258394122840  0.1632774299318949  0.4893110085607963
  0.8504279623391823  0.1468937841184350  0.1591233815389562
  0.5111980404648042  0.8360703385464863  0.8478752237740945
  0.4912946032330313  0.8208249906400844  0.4831101822044788
  0.4923434182627827  0.8436497740818777  0.1625228401975927
  0.4867374035492160  0.4947280904087997  0.8369938791753027
  0.4972853103117912  0.4920091307630395  0.5175646830476947
  0.5206451084458629  0.5083942644153144  0.1563410824693542
  0.4788451777366742  0.1923647293733926  0.8327754614018156
  0.5053161581679471  0.1613167822569042  0.4789176750933494
  0.4960447563805923  0.1688050750131816  0.1577344890657590
  0.1809641588621144  0.8440191629621159  0.8361464385745635
  0.1834783028190184  0.8327701298703031  0.5007495133711005
  0.1889742984310891  0.8412373294747281  0.1527071728017896
  0.1718614395352498  0.4829685362977186  0.8344640268793445
  0.1581138696120627  0.5180230309161570  0.4843061616993404
  0.1920809463623777  0.5210133237792951  0.1653639240824190
  0.1572005896134181  0.1647815135177069  0.8283857093734873
  0.1592181091680136  0.1718440515817654  0.4975297087190462
  0.1751271748848742  0.1594624695111053  0.1606031536361028
  0.6904012824929018  0.8628268220886139  0.8418493753595120
  0.8050773397225487  0.6603046721904782  0.8488873590224455
  0.8179538053228900  0.8701706325381894  0.6710880700400407
  0.6374605766780642  0.8191969913358169  0.5229436960677610
  0.8074735901657246  0.6682822817325710  0.4969511722110888
  0.8601609787706050  0.8351348016937307  0.3504499390863923
  0.6749878796498636  0.8614103995366617  0.1577972009657469
  0.8081192514833527  0.6786689755927887  0.1556339136926838
  0.8727373665125154  0.8313210760779439  0.9900282773035324
  0.6628737948039902  0.4631674056968492  0.8409050936582104
  0.8558133315686085  0.3368167732315727  0.8437330805129232
  0.7953312060183073  0.4980168417139716  0.6616963860997718
  0.6691891948704211  0.4808179513220224  0.5100157735113936
  0.8476966546433924  0.3309117130375284  0.4808089510184180
  0.8590037438130504  0.5145676416636966  0.3412166745551953
  0.6635497796936590  0.5036197795363831  0.2156926731899521
  0.8448655908975247  0.3337136475309485  0.1981042524263226
  0.8838295591262437  0.4953597032891807  0.0128336770901507
  0.6640250379208746  0.2064036323064651  0.8092704421023104
  0.8591253619844923  0.0055776414305589  0.8464974243032193
  0.8012772172045001  0.1679839499288994  0.6617920936088558
  0.6611583470142651  0.1657921406845378  0.4758059664858190
  0.8049902151203706  0.0118724293626570  0.4696791474588611
  0.8596464901811632  0.1570460775764871  0.3341173352535067
  0.6592395410104412  0.1330609114365169  0.1894491397916887
  0.8639131665632919  0.9891954303188137  0.1728867407720176
  0.8362736152596829  0.1575150504438106  0.9840246996599209
  0.3382400372877217  0.8389925754355253  0.8356896012088678
  0.5311295745710712  0.6932072863001023  0.8348207843116833
  0.5227735883877350  0.8255893136811222  0.6902645512510379
  0.3457962341978109  0.8445390765964890  0.4920015069633729
  0.4895236499462866  0.6612620711645983  0.4722147486830299
  0.4467928382064848  0.8488563597410350  0.3203416886985303
  0.3413066451485854  0.8512613550327567  0.1344136480173964
  0.5143307205146804  0.6918433328394246  0.1875410624214974
  0.5076254459505847  0.8506752882385515  0.9962501687247062
  0.3297218260667797  0.4656217527032804  0.8416388512278550
  0.4950087752257902  0.3411762016878602  0.8569447653075182
  0.4962774665168932  0.5193338675190015  0.6908966094709280
  0.3172087575060064  0.5127921135256294  0.5273513831326899
  0.4894235295275197  0.3347741830868756  0.5017276003896970
  0.4870492626619379  0.5128794405548570  0.3442222304178785
  0.3431667473080050  0.5295230330641509  0.1501756909680815
  0.5017452640409449  0.3290148501258889  0.1743725958020068
  0.5240449517158936  0.5304169104300845  0.9992711592545614
  0.3203436237680189  0.2233801160989416  0.8518259520170979
  0.4951254541772201  0.0185220086543740  0.8573089720552848
  0.4735152330334480  0.1754122534290070  0.6562647825322010
  0.3204614565536320  0.1756202674652481  0.4883675365676935
  0.4864933574981337  0.9778665043311724  0.5105353632624872
  0.5118440661511218  0.1596669410739772  0.3168227778378834
  0.3425936763303887  0.1827595658665416  0.1944633185401345
  0.4928410649216919  0.9910043380447870  0.1612979642413908
  0.4929699299815118  0.1845560654469547  0.0031949454852035
  0.0148385594969966  0.8342915715756243  0.8225553245180663
  0.1999171808529807  0.6467540030585054  0.8347802989017491
  0.1980778072234474  0.8319345110092646  0.6633282315179830
  0.0172218115932457  0.8018109368937427  0.5442464305230841
  0.1601615305543541  0.6608091203982565  0.5373901453799347
  0.1633620135445173  0.8310554917887766  0.3359398669525074
  0.0115964068986588  0.8387492581218219  0.1483779464613129
  0.1794782026186004  0.6920694033684962  0.1270209210712683
  0.1715784465198109  0.8555758851694274  0.0010113569931045
  0.1748013078203151  0.3443885165390767  0.8085030006716007
  0.0041663947877351  0.1675086613376263  0.8236275401147595
  0.0491203900668438  0.4944626680612721  0.7544000801937866
  0.0087229036892434  0.5008119949012276  0.4932680930131594
  0.1577111207540389  0.1314203414124648  0.3448447340810243
  0.2067462193152446  0.5112014822547309  0.3233877502138526
  0.9895986543503219  0.4892134512654543  0.1660082595028717
  0.2003260834933145  0.3433511588803367  0.1839056952791753
  0.1993189886785003  0.4996802252665216  0.9849830184119480
  0.1621492730899431  0.1584383404600613  0.6664301831417194
  0.1587027400209058  0.9933074442113955  0.8358008551153664
  0.0054347786427564  0.1799437651202191  0.5446040786344415
  0.1562216321585081  0.3424414922045288  0.5187091246157102
  0.1811886504601987  0.9928285479905464  0.4944700643486910
  0.1827141204638084  0.0115406982395028  0.1233219715926447
  0.0153612552381335  0.1610194472849961  0.1780092787201518
  0.1663107278916532  0.1549269902497196  0.9992096571724877
