Cl O  Li
 1.0000000000000000
    11.7780000000000005    0.0000000000000000    0.0000000000000000
     0.0000000000000000   11.7780000000000005    0.0000000000000000
     0.0000000000000000    0.0000000000000000   11.7780000000000005
 Cl  O   Li 
  27  27  80
Direct
  0.6585399638719321  0.6499605671247584  0.6884059293181866
  0.7090650267322355  0.6732562363694946  0.3224299084093287
  0.6486316861009050  0.6994510658196073  0.9887710256498414
  0.6766189665904374  0.3190803157097668  0.6555545292521289
  0.6654832926464399  0.3396059934495209  0.3388693734817351
  0.6720623741877710  0.3160050642138821  0.9864557106017997
  0.6646923696779685  0.0101124735989711  0.6642418480303651
  0.6789397522294963  0.0151895641441163  0.3294285402538064
  0.6624439719518717  0.0187341516108448  0.9684591804588373
  0.3241334939798005  0.6720171803984633  0.6849591634580420
  0.3479556557380239  0.6574282629287318  0.3773885082688038
  0.3414980709119046  0.6770212175517206  0.0258417657976312
  0.3173919242456991  0.3666648422757409  0.6554453805869467
  0.3229231219217075  0.2880277836206033  0.3513180904834183
  0.3190051463753407  0.3296973513098043  0.9802205311099843
  0.3350467613243254  0.0161120634297042  0.6774179461496284
  0.3201206611179583  0.9947660937194943  0.3585870434100256
  0.3501606935900814  0.0032332319632199  0.0026656300420176
  0.9857266657927627  0.6446371000871215  0.6485619297337314
  0.0170781016634690  0.6728658355615006  0.3240358229224773
  0.9811596648442362  0.6679529310660047  0.0066614840187765
  0.9854638965047549  0.3363850349632835  0.6607560947204543
  0.0169253982882122  0.3251778232999326  0.3295098551996589
  0.0104321458159412  0.3372047633009229  0.9788592345043333
  0.0136446023660923  0.0042800919904805  0.6947899116690455
  0.0000964240357072  0.9754368465073719  0.3311118831134539
  0.9960584655489093  0.0129950411121201  0.0175315458398873
  0.8263215430202584  0.8508600213073280  0.8293683535098071
  0.8284378773391504  0.8438461669487153  0.5155136339614269
  0.8147223921033359  0.8233165013960826  0.1569508256161238
  0.8393868325725321  0.5079678297357266  0.8327860508456187
  0.8214180311398673  0.4891331263553925  0.4933605439558492
  0.8254162892541331  0.4919236237205062  0.1540143884695505
  0.8508338393189222  0.1651090689913781  0.8284845570109468
  0.8465729118650044  0.1652833485597916  0.4935725255622639
  0.8056459680502236  0.1679684725241994  0.1585999886684345
  0.5154747274883376  0.8375587827859589  0.8251224056575647
  0.4970722463444593  0.8365469714208873  0.5111079711669948
  0.4987503261008154  0.8134610570850195  0.1871802994426807
  0.4909393949914211  0.4959870228593559  0.8325784416634769
  0.5063625953036632  0.4935206112007643  0.5194518522127606
  0.5273624584072698  0.4676760615174009  0.1895113481331580
  0.4873614159176805  0.1900025657886284  0.8175071000489715
  0.4956242856581685  0.1664222233839411  0.5012018391226941
  0.5043083656036100  0.1633979733832208  0.1779184319693654
  0.1713777103598040  0.8324114677669450  0.8429615728076205
  0.1579745700616308  0.8477926847090855  0.4976926042750213
  0.1687675350105366  0.8257159906720533  0.1498291484895042
  0.1742320734590886  0.5175867987673650  0.8211596937332208
  0.1736491645268583  0.5141018551656528  0.4894000992144618
  0.1535111244658702  0.5083550321963357  0.1681790087218206
  0.1685476182637749  0.1658588992687664  0.8178693634970615
  0.1572054687291138  0.1489017067741235  0.4936309055233887
  0.1714249365904921  0.1459952085881963  0.1467691802358695
  0.6479676039217569  0.8293666410566255  0.8579843319302051
  0.8546388200861632  0.6766559176978857  0.8131536229479444
  0.8100435742480787  0.8691338398184358  0.6782828764474591
  0.6771595277838768  0.8312893741452130  0.5001699874797051
  0.1958322843423422  0.5352077090724667  0.3284106763199497
  0.8273538400027566  0.6923758355795345  0.5049392902261648
  0.6453168621917356  0.8332044959767330  0.1773308064868778
  0.7809991792197586  0.6610408165425562  0.1573422385593662
  0.8423883398942218  0.8132664032340564  0.0046450708545243
  0.6700808157985495  0.5128150668963093  0.8679366173418307
  0.8492311838812733  0.3239048405553765  0.8488947906042740
  0.7910995602609228  0.4674931889207288  0.6952708783390619
  0.6738011415736183  0.5088923950423901  0.5031020623233581
  0.8256202547493809  0.3286214717835120  0.4817947935021225
  0.8154770401445064  0.8865283152257765  0.6767765762854533
  0.6602055336366185  0.4631027891258418  0.1165717809753329
  0.8024669726913827  0.3377084018005024  0.1866601833812581
  0.8399775147034696  0.4752682499569215  0.9920609206678438
  0.6511797973167435  0.1681986624437319  0.8311465536849298
  0.8520703447091277  0.0061190079451061  0.8653494377054056
  0.8378810182354453  0.1546640154127404  0.6730247123760460
  0.6627761547403805  0.1742234177522462  0.4813922065857383
  0.8355754551105216  0.0078841224766369  0.4967183633703686
  0.8088020486670414  0.1631634717675304  0.3193133415526063
  0.6564522932232734  0.1343101982381563  0.1777946680711970
  0.8404579955485669  0.0020896832882688  0.1553032313734481
  0.8248643921459125  0.1630285743816302  0.0087909729329744
  0.3322089365149988  0.8019460348499399  0.8655970464725622
  0.4916757031418915  0.6650168076813585  0.8549220155227942
  0.4995831514685686  0.8054408973770861  0.6591188242573118
  0.3082513510605461  0.8440949093073499  0.5027147788919291
  0.4840324221150342  0.6450645855306151  0.5267678896711212
  0.4715538471235245  0.8064920605606135  0.3512135166695587
  0.1563907200968962  0.8394970622719610  0.9883469106167247
  0.4661852793392212  0.5797305669975888  0.1360846757001770
  0.5124962563649001  0.8264537967826914  0.0060393276445378
  0.3350666801460129  0.5114698176950211  0.8152250994326294
  0.4950682995235443  0.3426037963562017  0.8677608296918969
  0.5321125710694209  0.4916362177953844  0.6924284786784130
  0.3142641429304249  0.4973782634863294  0.5115553754321759
  0.4869339304741869  0.3173058806777677  0.5062240947104217
  0.5153337977763571  0.5105369123939109  0.3482505514581261
  0.1693996539585417  0.3543618929925252  0.1551673522163570
  0.4838057443048135  0.3278930582879788  0.1895557403851506
  0.1926842706863658  0.5068436713580881  0.0265161110281976
  0.3284966066083920  0.1681194223751385  0.8253393264839911
  0.4844389766015919  0.0205947851412696  0.8311915734607767
  0.4865216270594188  0.1925830855751192  0.6618504153509714
  0.1540917257297343  0.3787819635273593  0.5077597872800397
  0.4904683877322486  0.0057401315620837  0.5295741763461090
  0.4645778466232000  0.1549530205115545  0.3622842520160220
  0.3232605678135076  0.1571922280495963  0.1674092191373348
  0.4941140179259890  0.9817080478926762  0.1719518339522213
  0.4794634816623380  0.1751642784364083  0.0177124801975588
  0.9765863911875080  0.8834796019161033  0.8409289623164721
  0.1638711485622939  0.6724905358114120  0.8232318179844649
  0.1827014187902401  0.8354817193147028  0.6793748489242001
  0.0026897735853476  0.8625513979880801  0.5164040700675161
  0.1466612663815476  0.6658603616827441  0.5099534892173155
  0.1658353994387687  0.8348885270883492  0.3361753123630843
  0.8382802147416599  0.8424962214398745  0.3383417878621797
  0.3509035603769610  0.8159580352281112  0.1837254365005495
  0.0042290048328276  0.8355084396852591  0.1554049003591450
  0.0096589010547513  0.5022357029702155  0.8495927590715370
  0.1670920665631213  0.3483164901249444  0.8436542781715921
  0.1555466701492388  0.5249837260747737  0.6711196309261896
  0.9803091131927772  0.5121122401798543  0.4927394977674611
  0.1317360973396091  0.1640582802978925  0.6579115088476688
  0.2077980612531871  0.6597556072042001  0.1698181921205825
  0.8140929960420613  0.4938628748563467  0.3156213353217864
  0.1597591163247608  0.1657152469129680  0.3315109680418786
  0.9903915300984523  0.5486814964109747  0.1697812997907801
  0.9636058350678881  0.1873783015167040  0.1681150415312126
  0.1933813079892002  0.9913901602469521  0.8421198811350920
  0.0053480671094907  0.1765181712727175  0.8450402556952739
  0.9910676769297607  0.2039995460797142  0.4970665378958014
  0.1651101944119727  0.0033922905989596  0.4615781206536900
  0.3163811857439907  0.1751336917092032  0.5097605762389799
  0.1556190378194960  0.1562349707744109  0.9897502652374518
  0.1382430338804379  0.9909452761985394  0.1634972253102858
