Cl O  Li
 1.0000000000000000
    11.7780000000000005    0.0000000000000000    0.0000000000000000
     0.0000000000000000   11.7780000000000005    0.0000000000000000
     0.0000000000000000    0.0000000000000000   11.7780000000000005
 Cl  O   Li 
  27  27  80
Direct
  0.6602710511134279  0.6725477193150423  0.6542343072708295
  0.6694180007506453  0.6942189114861753  0.3496200586566148
  0.6765786552056791  0.6747857527761961  0.0098801389103748
  0.6737297778794404  0.3397127513376154  0.6593012182657144
  0.6490589002300649  0.3280719611765758  0.3079055521623871
  0.6635557538776063  0.3251501898697511  0.9855411132077988
  0.6840225860740213  0.0218631440853464  0.6774931347925258
  0.6688715286873558  0.0106170563071063  0.3054219342045734
  0.6760325070256689  0.0222008480716349  0.0063265674781481
  0.3534637078430860  0.6781023175579928  0.6789368040253636
  0.3357033455434666  0.6745400063378966  0.3727253655038409
  0.3512691152267915  0.6590531629612381  0.9974572822805794
  0.3470679037525262  0.3131661239178808  0.6642075641248009
  0.3512390345672105  0.3197465009923299  0.3295398621250699
  0.3329552971306687  0.3275101046575113  0.0069421057530317
  0.3419639081221418  0.0216143409985967  0.6823621531036530
  0.3154037788181941  0.0063853283225187  0.3301889242171324
  0.3362086034594434  0.9871365939390645  0.9981648045138559
  0.9751373520090229  0.6478388663511487  0.6558740473439780
  0.9918552238590242  0.6540256442702190  0.3140954879434322
  0.0428637875229718  0.6772145130035491  0.9818718711638833
  0.9748478383122464  0.3259224895496528  0.6497136659121848
  0.9929875476377787  0.3299214156731827  0.3273797428353342
  0.9898683701047002  0.3264192657722485  0.0100224666341670
  0.9987894418348355  0.9910324910201576  0.6662945870069007
  0.9867047117577945  0.9633788166343269  0.3430056738378211
  0.9838332245952769  0.0356456174925729  0.9747103045219571
  0.8326227447913382  0.8460442189296578  0.8371233005339123
  0.8372653686901144  0.8372749171963048  0.5177723222182968
  0.8295850435131672  0.8160356233783483  0.1714582430709554
  0.8456924067678848  0.5050199432015928  0.8493325665785406
  0.8314565220727781  0.4977132173875171  0.4949543403253724
  0.8297548393224305  0.4674273372635697  0.1765593439945295
  0.8354833628864576  0.1902439579074587  0.8236698368711911
  0.8190458006283180  0.1584084885969333  0.5060665327316082
  0.8464001727043515  0.1498250148951777  0.1768621141327212
  0.5009382102225968  0.8444427780543067  0.8368719671090419
  0.4998036875800153  0.8705187828262632  0.5134120840538107
  0.4798871330754237  0.8251335046987258  0.1801295093841529
  0.5113095601124497  0.4914842941567055  0.8390515396382509
  0.5081609692964693  0.5044503134838209  0.4874090339905555
  0.5165893029073576  0.5067009783928740  0.1777047572123834
  0.4929078481913601  0.1616081922429553  0.8603000641296721
  0.4936300269337635  0.1586436987072976  0.4946390399528062
  0.4805687859224833  0.1419074047306073  0.1511000737148034
  0.1714407784693123  0.8396403987279308  0.8353278535741576
  0.1680617446999875  0.8261334943240967  0.5028558777821992
  0.1679493167166006  0.8278095902953660  0.1781291252793120
  0.1672784937166986  0.5036042493870193  0.8257329733614298
  0.1621619374878820  0.5079937585028877  0.4992482633883867
  0.1687078209930674  0.5072731586914718  0.1627718858212049
  0.1585181291375886  0.1796021654792466  0.8276317390873361
  0.1578844413799486  0.1550911748350529  0.4872538129288684
  0.1631945988390696  0.1521474098292815  0.1474150613385496
  0.6506775474046378  0.8446312781229596  0.8214191719621380
  0.8563829031442476  0.6596625898369752  0.8520306762381850
  0.8313518268026887  0.8420657986662593  0.6640865937199180
  0.6543092911027709  0.8257594091363061  0.5103123591276209
  0.8171412050033812  0.6683743213174017  0.5293145101634420
  0.8370737107594864  0.8193134841082481  0.3488176378317221
  0.6717775309270111  0.8485907512145089  0.1852557719900011
  0.8072276236436524  0.6619366148275603  0.1866470328596794
  0.7962893565584933  0.8371231778798721  0.0060163214559783
  0.6852103470306662  0.5331658860126567  0.8622512989468533
  0.8386619533911989  0.3483949689542001  0.8216102630970264
  0.8441162287883326  0.5171445947394590  0.6340438689680344
  0.6684850144787153  0.4806713699007021  0.5045578439304162
  0.8256909138732516  0.3244266953515249  0.5109472108407965
  0.8325555390108476  0.4838556688482442  0.3322175671381073
  0.6813875526830544  0.4817494153964257  0.2003165873979236
  0.8832724217434184  0.3015427424831130  0.1794426339192120
  0.8615476268895329  0.4808201537822097  0.0077276454271509
  0.6608411666561190  0.1701525266746571  0.8478818933697843
  0.8370711196932507  0.0132415154150661  0.8091668294413398
  0.7870937434585352  0.1747446045391306  0.6695438650373868
  0.6515165265547008  0.1621629941793389  0.4962440030588214
  0.8419034582229779  0.0052498631289871  0.5072565608712094
  0.7927534418256743  0.1466734585229198  0.3593225895743571
  0.6855711530039982  0.1586443464738565  0.1485204850927411
  0.8298431784869066  0.9906589517528166  0.1877752802637213
  0.8656204591288974  0.1751374547144255  0.9870265482016600
  0.3267637419332262  0.8367306313451517  0.8058573900916914
  0.5081346942654222  0.6543103781582852  0.8248052097073814
  0.4997515018866102  0.8349763175618898  0.6901115463899474
  0.3171218581595650  0.8723595734451439  0.5198049731948553
  0.5023402199686127  0.6670238090128220  0.4894331020602078
  0.4714233342454333  0.8130615651645937  0.3401964722133178
  0.3261022508203140  0.8289611572955299  0.1475467097703026
  0.5224148699989964  0.6686058573768147  0.1404499008067349
  0.4753891635463420  0.8411877510956098  0.9895613637558424
  0.3475987484475813  0.4892698232041333  0.8268838925950347
  0.5276018202343358  0.3378612523278069  0.8418413082659856
  0.5215694536687538  0.4851562626423752  0.6608187328862720
  0.3399351437449370  0.4938341888055069  0.5270049389829349
  0.5266307371916579  0.3314173110848356  0.4726404017861269
  0.5061992487581155  0.5021604991833616  0.3416142307837980
  0.3477868436621348  0.4979251585085218  0.1617234047960856
  0.5079173685848962  0.3169310443719919  0.1681465466597034
  0.5300619971397977  0.5053750407321244  0.9982774867962240
  0.3486671584157406  0.1658954048492730  0.8759986866856955
  0.4740880029564719  0.9968329457711157  0.8586999187874392
  0.4796872970919893  0.1403425221804268  0.6522393077255100
  0.3248578912605812  0.1747825393682388  0.5006600301181966
  0.5104230106057140  0.0099375105991170  0.4797823519817711
  0.4935544811588266  0.1700295117565726  0.3240667812550218
  0.3083592365188513  0.1414686036150372  0.1929378582822802
  0.4946650769241371  0.9987039941732461  0.1616840732203347
  0.5161205628311414  0.1689786522136196  0.0099975092766962
  0.0005277621415658  0.8392914144942994  0.8447839498016313
  0.1782662947009119  0.6674534401830422  0.8242021390410037
  0.1525858931121261  0.8292531380719742  0.6683431487495631
  0.9973995691719086  0.8446188086166999  0.4899332992999429
  0.1629522228111470  0.6624874188297130  0.5047111621778364
  0.1659846407433215  0.8025313100407501  0.3270114268184593
  0.9873320053510033  0.8272625514363373  0.1314292251631017
  0.1690982724078237  0.6652439489358918  0.2132015954197611
  0.1794049063698969  0.8298932933738511  0.9822099660874116
  0.0109548435192615  0.4960381740369061  0.8354752204663175
  0.1585461754053204  0.3468287099000819  0.8170242378013381
  0.1614928857246646  0.5069909753842315  0.6510197657220668
  0.9913471471463806  0.4687367568770662  0.4973922502553705
  0.1654835933099778  0.2913545890732117  0.5947214834051694
  0.1981390642346597  0.4934388892629109  0.3269031688322956
  0.0216283499403116  0.4642303258973082  0.1739295939495590
  0.1637992990431969  0.3377793908289203  0.1296606807582480
  0.1610447932075146  0.5183006151347157  0.0079140434174099
  0.1715533481516339  0.1771338307636830  0.0012731764695154
  0.1500504032228345  0.0317027839045066  0.7922217420842670
  0.0037112189609520  0.1562084810570601  0.7924597962946791
  0.0010608490324882  0.1707201928500473  0.4907332505148296
  0.1567183603603234  0.9891280244424647  0.5043088991447318
  0.1680825946861035  0.2007916824856890  0.3457310706637607
  0.9990694401951082  0.1450165728786642  0.1468238528972828
  0.1627795930231883  0.9980997092608629  0.2004013638463255
