Cl O  Li
 1.0000000000000000
    11.7780000000000005    0.0000000000000000    0.0000000000000000
     0.0000000000000000   11.7780000000000005    0.0000000000000000
     0.0000000000000000    0.0000000000000000   11.7780000000000005
 Cl  O   Li 
  27  27  80
Direct
  0.6544535775249875  0.6865550716670898  0.6736952848607595
  0.6466610672771130  0.6704236600788716  0.3428019161729491
  0.6777505423028414  0.6772447229153785  0.0055129970609757
  0.6489101532551789  0.3097855999844071  0.6889121310385679
  0.6645465092507238  0.3354596858492433  0.3130667388376295
  0.6680701569043329  0.3205757714400275  0.9918210483977773
  0.6713456694804563  0.9767222841735999  0.6421972310779769
  0.6551394003692701  0.0203394189548753  0.3344865975838917
  0.6573666242259714  0.9885192898192080  0.0208406941889370
  0.3357493738757731  0.6984378633660101  0.6784275029717197
  0.3143095760651184  0.6199661268823382  0.3290413909185831
  0.3220233826760809  0.6654732660937770  0.9893495052134765
  0.3418455656901161  0.3382830371245183  0.6512279471032739
  0.3430953098093700  0.3370616125495133  0.3608941576205028
  0.3102043150123969  0.3373279255760595  0.0074392346678606
  0.3297835653241228  0.0226645858743906  0.6435475409555069
  0.3142160952535807  0.9762234305434070  0.3408066737151699
  0.3410882051264801  0.9973683291488872  0.9808167306314799
  0.0200374392837695  0.6805807206939436  0.6635783857723422
  0.0081728274316633  0.6773702681715840  0.3233132317232457
  0.0083551104595531  0.6849134692650845  0.9971947208229474
  0.0090717129693227  0.3447915323536296  0.6682484992644635
  0.0070779823885706  0.3470456790079370  0.3278663221379526
  0.9716919894380853  0.3392685532158378  0.0087868851600256
  0.0119276094535085  0.9814892185235783  0.6762879705129353
  0.9965418872443439  0.9929305718620220  0.3248907254786206
  0.0246294943751999  0.0169690123733737  0.0067075355282774
  0.8528960531494798  0.8171708825543273  0.8271121547395688
  0.8470617816947051  0.8195662423184847  0.5014631850837944
  0.8285244841357468  0.8473444156657078  0.1743085225471628
  0.8232955505303057  0.4934158608606772  0.8279128751772442
  0.8281914511536291  0.4893250935847119  0.4836644628582624
  0.8329406326513517  0.5119613364724424  0.1599666065634390
  0.8381665703364575  0.1546179891597625  0.8305236982930706
  0.8182285585646010  0.1548399706624309  0.5071160009312445
  0.8425705732290824  0.1688710295473287  0.1564903976889201
  0.5158780921322580  0.8321982570136444  0.8332971917860119
  0.4926727458370848  0.8242729951065966  0.4901233027320895
  0.4980777504903287  0.8515713353752814  0.1718099857157885
  0.5097534998028463  0.5035612211922781  0.8438123053665406
  0.5004757013207221  0.4966057872802000  0.4873458821543845
  0.4873776185864017  0.4829460909392747  0.1547759822771482
  0.4916955090120969  0.1626079366305326  0.8345035760312265
  0.4857629389820024  0.1505128293205658  0.4975402298320056
  0.4838723513089025  0.1812820141469534  0.1663938070894027
  0.1972251430120203  0.8390374573138017  0.8365239599285750
  0.1881220390737613  0.8348398490410206  0.5083871618323536
  0.1610696476704258  0.8064756898704122  0.1612508644946617
  0.1787288166879150  0.4949194889856274  0.8295766635838937
  0.1717719050583743  0.5078632818226891  0.5064563721471892
  0.1754768666203731  0.4872352772093267  0.1570649868694089
  0.1738624704138433  0.1777061807999392  0.8301495321344602
  0.1467488549493350  0.1747416771429291  0.5172655312600687
  0.1754872511280212  0.1907191024744632  0.2134051614642356
  0.6728081644289136  0.8153526827941896  0.8355136870090808
  0.8708244501430306  0.6487297555927658  0.8509371707191926
  0.8273113793124830  0.8258244769860889  0.6589755590315312
  0.6636748178894338  0.8048275288319976  0.4966035593877717
  0.8683097393903875  0.6552464086319787  0.4867647950656013
  0.8225484327753829  0.8531185258013205  0.3539879539669046
  0.6825172539830652  0.8576392886161952  0.1813064054115567
  0.8276661124743251  0.6819156056302886  0.1640431027324025
  0.8483684887857362  0.8035634123922170  0.9991178590819264
  0.6614733427534506  0.4840491969037476  0.8521402351607924
  0.8280525052267357  0.3168067822022181  0.8078001283761124
  0.8165339202755819  0.4834404582799793  0.6833436867854199
  0.6582447932528506  0.4763179815665134  0.4463695866248941
  0.8235605680237339  0.3167038885328707  0.5306562830228021
  0.8165900330537507  0.4995957157746487  0.3368292453443150
  0.6780517942381606  0.4757360037987116  0.1332504464896056
  0.8476861476867079  0.3286396149052797  0.1756113227961353
  0.8438818146860262  0.4880540541398328  0.9987500797339522
  0.6496054091999761  0.1294149814035664  0.8540095275082669
  0.8743515390564840  0.0057198344197035  0.8150832107107866
  0.8121439253347942  0.1419867335660392  0.6763808845287341
  0.6579426911239229  0.1303796070233599  0.4885157890452486
  0.8481946444354796  0.0098140448532667  0.5210948842440898
  0.8666176111967845  0.1525868766287817  0.3275892602350691
  0.6575062988902438  0.1791650927896173  0.1451912335382564
  0.8159340884419993  0.9979413386076579  0.1428699418315733
  0.8259875873784599  0.1654880889359452  0.9987148913496551
  0.3308743434812707  0.8231564075006156  0.8599595062646330
  0.4896657324996438  0.6723980120651250  0.8666244573604345
  0.5155039259736477  0.8047278537527398  0.6491393048047768
  0.3257548824242915  0.8325130715612916  0.5017046400686410
  0.4979555250377379  0.6515683091394712  0.4651256673391362
  0.5139924031937602  0.8675506027929676  0.3352282902938833
  0.3372020915977313  0.8132199113988645  0.1851077829773134
  0.5176271428122283  0.6802714121620473  0.1859768630296625
  0.5235537614870626  0.8436333610495140  0.9844176535461316
  0.3531518856369856  0.4654161918357049  0.8111430086743661
  0.4850012869649133  0.3185700432610753  0.8238636864172812
  0.5359735921487578  0.5262069781513430  0.6406814978154564
  0.3294922727996474  0.4794733739313626  0.4893056593930617
  0.4984936571065811  0.3384830755350025  0.4978648418488568
  0.4823200597212116  0.4849007670163001  0.3071127115402699
  0.3293802091849500  0.4740859804314399  0.1468064394529849
  0.5109263216432255  0.3255490396817349  0.1721396179234714
  0.4951825173697157  0.5142259283625128  0.9961511749060405
  0.3382821006358368  0.1714550513217787  0.8393360765025932
  0.4913051082041029  0.9815020966794447  0.8187761278633302
  0.4868034545027172  0.1344632994739391  0.6730568704315095
  0.3133533714105913  0.1655210643023365  0.5160035200616048
  0.4724891900539783  0.9818082448190276  0.4971110440012950
  0.4617012857813143  0.1822226319186559  0.3355509185256477
  0.3403018570093311  0.2316629691905965  0.1611276066641175
  0.4861834609349873  0.0135260711192990  0.1756059179939090
  0.4822074293107750  0.1719843373285514  0.9916631230372236
  0.0181658721623244  0.8344266549472338  0.8706460350708223
  0.1914829758648456  0.6750829234811306  0.8002427169037253
  0.1821356234484545  0.8536578724324618  0.6569869561809810
  0.0219664754446161  0.8256574341847008  0.4918672522504083
  0.1676927166096503  0.6689125421530835  0.5112328003257973
  0.1868911409128317  0.8233223976813453  0.3369900533925730
  0.0165331322695873  0.8597591046803416  0.1714374592162804
  0.1488969703150252  0.6637985871118554  0.1847050341192895
  0.1874221677922315  0.8437245341926854  0.9979793366073600
  0.0209786162601968  0.4645121931172878  0.8599859837227301
  0.1901150750766992  0.3337592986320135  0.8034512666118176
  0.1631007905654640  0.5164245290343908  0.6725522602820918
  0.9916824019820870  0.5030215506778573  0.4851364313926443
  0.1583809407472387  0.3416123750531491  0.5223735349460366
  0.1629935244718438  0.4922666015288796  0.3215398695546098
  0.9834945086904588  0.4881223530263914  0.1878899403479806
  0.1724515133922321  0.3447094684276933  0.1715469317647421
  0.1982810227458050  0.5158596765949912  0.9889482707628181
  0.0198650093925223  0.1760665621830205  0.8719995432957373
  0.1610649817269308  0.0298049799120904  0.8528191754853862
  0.1728695454925061  0.1360004798823722  0.6856315982716126
  0.9911000029129879  0.1829084750056435  0.5505781816015048
  0.1728921768366592  0.0072092445747525  0.4814387369617287
  0.1834654274658530  0.1999499176383592  0.3626752322597311
  0.0209700080499096  0.1530200806364284  0.1668703608497362
  0.1910841338488804  0.0643631360564280  0.1552598031685649
