Cl O  Li
 1.0000000000000000
    11.7780000000000005    0.0000000000000000    0.0000000000000000
     0.0000000000000000   11.7780000000000005    0.0000000000000000
     0.0000000000000000    0.0000000000000000   11.7780000000000005
 Cl  O   Li 
  27  27  80
Direct
  0.6412403185613604  0.6703865619599499  0.6423126083930196
  0.6463589294247312  0.6562773965979369  0.3364091828702752
  0.6604401598538896  0.6518812478748393  0.9799591562491425
  0.6649372791893629  0.3346129605024606  0.6602627865371149
  0.6597120297562259  0.3186961418295977  0.3274081224077550
  0.6938602179878810  0.3565651619039455  0.0117450043639483
  0.6796318635790222  0.9897921369915275  0.6550181445926195
  0.6674502085839686  0.9834703509842642  0.3231206365249202
  0.6535474378417995  0.9797571696188797  0.0135180502403190
  0.3124902879608683  0.6615891633521029  0.6759929067420669
  0.3483892677451208  0.6382901743037522  0.3578123211422346
  0.3510785110999893  0.6650774267574296  0.0048265431199080
  0.3359579189842992  0.3243231887136250  0.6618702192531359
  0.3420998188264576  0.3268907329262319  0.3352257538524932
  0.3275458402654994  0.3599722925477646  0.9891536344924536
  0.3301568658083754  0.9695896625028757  0.6554782612765200
  0.3275199093604366  0.9817552991924549  0.3356034422417679
  0.3360732416744963  0.9970445819922342  0.9968470930731248
  0.0050815095714518  0.6839004298542928  0.6440199995861681
  0.9886651012562951  0.6819658750260046  0.3227653770527490
  0.0166059424502951  0.6633629506175429  0.0114826260131802
  0.9706419064102151  0.3162142242590013  0.6689131826214915
  0.0118671492557278  0.3514621379233996  0.3330884683339603
  0.0051618924039991  0.3254865167253747  0.9938250270704949
  0.9744766161200381  0.0030731483062507  0.6709643354303896
  0.0130808993152122  0.9949532214780106  0.3510303672117239
  0.9891571685196479  0.0068610616265739  0.9945564175088275
  0.8292361414335230  0.8234178487945475  0.8425132439147177
  0.8297376746917861  0.8305414995849016  0.5061003778343700
  0.8462055200365560  0.8496383055091487  0.1873985830670469
  0.8446314472983207  0.4987350229614388  0.8208232665133756
  0.8502697693690147  0.5159084075451297  0.5172959701850700
  0.8399471234273124  0.5020435311466587  0.1735149821664815
  0.8060444792069076  0.1784438519709252  0.8309603273359402
  0.8256429803310572  0.1560964522403692  0.4941876674175086
  0.8597122624987505  0.1733465364331799  0.1703277885121291
  0.4842361174791157  0.8167672295338628  0.8231769263053009
  0.4987872215759686  0.8313405196353598  0.5050516842608486
  0.4906875890083348  0.8496752282030083  0.1708751310117324
  0.4901762582808678  0.4937420788105035  0.8174356093517350
  0.5110782681486639  0.4952104846288111  0.4951821915125383
  0.4989656812629579  0.5080077607673215  0.1685720374968146
  0.5131875984916372  0.1633569335949477  0.8284758186991078
  0.5066876254413171  0.1658841442179078  0.4922263922186639
  0.5115167251382495  0.1705748647836856  0.1609865898780480
  0.1576563072781376  0.8408800158072979  0.8228533669091080
  0.1768208048077943  0.8309186616638470  0.5027587525838244
  0.1573026672223638  0.8465277304930963  0.1779908871471492
  0.1710038206230615  0.5130727284625295  0.8324542389625063
  0.1694828748640120  0.5002029024694173  0.5085987729668096
  0.1823369621540123  0.5152042043247369  0.1702223037765460
  0.1571603711277981  0.1827645763753158  0.8363471540401238
  0.1661504701655787  0.1771462743398343  0.5219112664321405
  0.1721069468302393  0.1773009893338972  0.1685490012985622
  0.6540375946998709  0.7927062645851436  0.8227184695232078
  0.8115900087180327  0.6697163259984918  0.8448911949526035
  0.8023316432326765  0.8484506255233236  0.6708332841584330
  0.6480675351801775  0.8174311902567811  0.4754812623012554
  0.0162960630842404  0.5377608124111271  0.4827578264849303
  0.8430500871862971  0.6833057801531816  0.5442857711446474
  0.6608920175141635  0.8363791718141106  0.1793027358852419
  0.8250368327735246  0.8079807619866980  0.3511419450015021
  0.8588005310670361  0.8354416916616779  0.0135129452831601
  0.6768150911828612  0.5326334971846206  0.8188887116850874
  0.8209207621163508  0.3400125401107735  0.8623988675661197
  0.8378209916392163  0.4897266548824255  0.6664640177475316
  0.6835286652559932  0.5276905525149538  0.4967191796152742
  0.8353473330922466  0.3323705343743290  0.5110412172627203
  0.8547534475483896  0.5016328066628777  0.3382355809259246
  0.6671032486208339  0.4949763575031627  0.1713429196808152
  0.8240868831148325  0.3405536680999519  0.1781547720865622
  0.8350730039545334  0.5762253526228996  0.0503546657927985
  0.6581459326437475  0.2012022393404267  0.8184255585954420
  0.7622828279593650  0.9969581061054917  0.8499876602967402
  0.8160880997033443  0.1620384250069208  0.6604517319452771
  0.6546783977683069  0.1490807456742518  0.5162673573748757
  0.8140503880505440  0.9959278979171124  0.4777089719828760
  0.8599052969333162  0.1560162405219374  0.3402028277227345
  0.6965126601051194  0.1673201414655633  0.1701824458904659
  0.8320825896351655  0.0044216284330270  0.1768999268056566
  0.8272779431258334  0.1728834440716494  0.9997798651830763
  0.3356331247831034  0.8412388784809530  0.7892269951260930
  0.4348658199663610  0.6424115485496275  0.8171110783057037
  0.4984904635211522  0.8502980557494337  0.6590066052376815
  0.3276072363896644  0.7921538816520035  0.4799193943944548
  0.4945184804379333  0.6614843061403738  0.5091571477406198
  0.5009229888916290  0.8256532911894656  0.3281829524257776
  0.3314687752745831  0.8527807830282287  0.1670249280415952
  0.4602183099773861  0.6680107566487907  0.1795336849062106
  0.4860292972559141  0.8351790223220259  0.9952387756876382
  0.3305985616307558  0.5047785230147527  0.8278949340373742
  0.4948506632264422  0.3398602339986016  0.8479773167810555
  0.5188156777536178  0.4947239309722239  0.6595681378734666
  0.3467646287298776  0.4426798555311953  0.5211772659500363
  0.5459289996989042  0.3262066914399864  0.5116399155048249
  0.5015068289882878  0.5173383117385899  0.3526294194478887
  0.3453507162733412  0.4969179972781892  0.1688943620880045
  0.5151398859294766  0.3557017295662823  0.2042870920637367
  0.5015575572069352  0.5338266831861966  0.9821665827403862
  0.3366303411578936  0.1855444260776168  0.8560170714273969
  0.5066791235052309  0.9921013222954712  0.8583807716009859
  0.4617233955770939  0.1542288602801119  0.6504502567605817
  0.3147008723140867  0.1687353089698077  0.4936400617627407
  0.4910607430316968  0.0167250995984802  0.5011017657260439
  0.4653847341098888  0.1670902754293102  0.3246019976744067
  0.3430435337320201  0.1892239628021770  0.1378252208594156
  0.5198471245425073  0.0086710934552574  0.1779845916659044
  0.5579115879333119  0.1811685403021911  0.0024477156361556
  0.0100138619294524  0.8333153979319423  0.8323944824974434
  0.1362827435981349  0.6822946165546692  0.8284984905286709
  0.1798894369391549  0.8286850006269663  0.6583272600589882
  0.9876913309945329  0.8358680839991033  0.5189151436699719
  0.1860713566090331  0.5084662985202344  0.6906889081210739
  0.1906093864512447  0.8300150273141194  0.3476982965179227
  0.9961991634010875  0.8390231929660829  0.2087706487868821
  0.1557444040367075  0.6585208146186119  0.1842309033802828
  0.1789373213110310  0.8440113193532363  0.0296286485323240
  0.1790734535019343  0.3373898142844265  0.8267935689455286
  0.9795476566267362  0.1796203782263134  0.8227806551128667
  0.0183166079009718  0.4978837362467559  0.8589365553085606
  0.1689272429767247  0.6415841887122156  0.5066773354113401
  0.1639616770842572  0.1671973188531758  0.3428598446912955
  0.1834908773079523  0.4831133631697000  0.3504355960543830
  0.9969202645357437  0.5167872648239777  0.1682823239033266
  0.2032031424340166  0.3573675422434283  0.1772202068836448
  0.1874028002855339  0.5345760681240758  0.9881472266644392
  0.1816814426390653  0.1977916269513534  0.6800128245506476
  0.1586105281475780  0.9998201366827942  0.8105893645902489
  0.9779063123192190  0.1442918985961464  0.5207164205287573
  0.1330640522948539  0.3296819792714293  0.5027406960909938
  0.1643661465722033  0.0106458800270830  0.5275974827427864
  0.1524463815726607  0.0024723027559582  0.1609376936242002
  0.0151567178601127  0.1816012888489761  0.1891608522333608
  0.1760292948008789  0.2048966544531376  0.0165622000851909
