Cl O  Li
 1.0000000000000000
    11.7780000000000005    0.0000000000000000    0.0000000000000000
     0.0000000000000000   11.7780000000000005    0.0000000000000000
     0.0000000000000000    0.0000000000000000   11.7780000000000005
 Cl  O   Li 
  27  27  80
Direct
  0.6654571109640760  0.6436420333564692  0.6775628981152005
  0.6598259143255305  0.6763880499004686  0.3375716076216028
  0.6583193712510650  0.6495485712679760  0.0153666470225900
  0.6847062634859049  0.3456916022465774  0.6749321156922766
  0.6790597633624044  0.3407544065051213  0.3090926925565364
  0.6693906329078575  0.3237349879354097  0.9993762704716765
  0.6883164284605433  0.9889230427459290  0.6752341773357945
  0.6769455342848288  0.9930988363411856  0.3253782321003735
  0.6682259891202850  0.9809206801711688  0.9969816365982676
  0.3200908155059954  0.6689279653535628  0.6733162215255794
  0.3336637313707271  0.6740271027347551  0.3349129509939394
  0.3246134406497270  0.6701549161870238  0.9927392830913259
  0.3511768087864693  0.3276186116114474  0.6673519109340966
  0.3569313644690839  0.3261425742933672  0.3108844553439872
  0.3470052326322758  0.3458887661929563  0.0027359923841703
  0.3065707735866376  0.9862119828157823  0.6664216776700421
  0.3342932794952014  0.0000744006151716  0.3683421385878707
  0.3356038731855862  0.9766655547825620  0.0169961392263489
  0.9656424153857212  0.6714191540830341  0.6518398451470492
  0.9993441158090332  0.6722115750116731  0.3033888246071593
  0.0047213039808758  0.6847098663978204  0.0077052829343517
  0.0001540700040230  0.3165744954220157  0.6749503341267471
  0.9957340028644724  0.3465256421766286  0.3014072257325277
  0.9890844355918617  0.3405781735156783  0.9790272669490750
  0.0242402664565338  0.0021062710417245  0.7062095239909189
  0.9889264349537488  0.9998062453640957  0.3460399003320960
  0.9570973041402161  0.0087028255166572  0.0256150971247426
  0.8398154234999572  0.8280074890344363  0.8402061904909282
  0.8273363626835284  0.8312838922895783  0.4973453751120255
  0.8201059923525883  0.8279521049936466  0.1498481908301815
  0.8422142650093689  0.4925023868156297  0.8384645081555657
  0.8340315158951405  0.5135716419118631  0.4830833773275114
  0.8213795014074736  0.5071936918870842  0.1455849354651923
  0.8493761340267006  0.1582258244826238  0.8201161964901791
  0.8103370248771443  0.1682724004139857  0.5153390345863896
  0.8127369999780341  0.1542306128954554  0.1688412731341775
  0.5032799675983290  0.8469434869104253  0.8341132982374947
  0.4952783502081456  0.8430437702839388  0.5190390366856715
  0.4942999393062696  0.8289078845513695  0.1795148061237779
  0.5010939174035307  0.5126132712879045  0.8090879708241467
  0.5013532264541581  0.5138632178342081  0.4923147795298514
  0.4986341453521682  0.4975186100772772  0.1765520635820998
  0.5064617159650453  0.1637865360224742  0.8306514718048548
  0.5045730311062124  0.1750369557395772  0.4950849532191781
  0.4914590780911980  0.1583941425744246  0.1903216575682911
  0.1662933625311011  0.8509319475554874  0.8493065009359015
  0.1716909583543272  0.8098719686836632  0.4698053369460344
  0.1561607955890393  0.8466851899950462  0.1532580238751136
  0.1789643849187321  0.5140142284132621  0.8241153452834638
  0.1479340388342125  0.4889823423635046  0.4902608737130776
  0.1790680275681633  0.4976635883302509  0.1709605224025847
  0.2000591660659290  0.1640931219105522  0.8765463802726416
  0.1972873729602048  0.1837478775118052  0.4784362190628227
  0.1636346249326177  0.1616134816442646  0.1604213301244979
  0.6631500903643947  0.8359622243199163  0.8199911775443030
  0.8449295404828253  0.6714072108871035  0.8469015056441800
  0.8395203658323579  0.8287043239102212  0.6649705996071862
  0.6477989945672452  0.8360700774519806  0.5065237819127618
  0.8133240384220778  0.6741202596630134  0.4822302687693813
  0.8013134747694055  0.8166085789550479  0.3343533211724212
  0.6611021763882912  0.7836800136976559  0.1777741966517787
  0.8304815932104841  0.6627269365701957  0.1445132158147708
  0.7949810708308026  0.8333389316978302  0.0082175068711753
  0.6751019096872525  0.4997012190122312  0.8194238959803072
  0.8495197762611466  0.3215895243640702  0.8145233800202510
  0.8333523326580872  0.5120572851532804  0.6453280098716184
  0.6801351368210723  0.5180380733066062  0.4947986404001247
  0.7946277141728981  0.3391092616297466  0.5065446318988778
  0.8254061802795131  0.5103381531912512  0.3103615862746891
  0.6574497851310918  0.4825685222655241  0.1562211712708909
  0.8368159404487642  0.3405314533526145  0.1484898243560746
  0.8366829863625408  0.4854098288201051  0.0005379540799397
  0.6770568286767374  0.1912246825330138  0.8642339574035015
  0.8520586972889301  0.9816131388271735  0.8331180049196762
  0.8359540870420882  0.1979246535084080  0.6632703743315963
  0.6635285074910483  0.1835065642258933  0.5454295726074055
  0.8304666945796285  0.9964932023780616  0.4756999316616107
  0.8167206023739039  0.1771292012395585  0.3250051590478314
  0.6567827880024285  0.1647288136959840  0.1702071496518271
  0.7972429097129974  0.9952651492660566  0.1640494200143845
  0.8550917022595487  0.1735362020787323  0.9861195946838308
  0.3157777226013774  0.8203902401261666  0.8452194178322403
  0.5105375036393349  0.6723010072822172  0.7930860315768975
  0.4863410340235665  0.8840179200867028  0.6658435055307741
  0.3318686082942518  0.8125415766147139  0.5254434236831373
  0.4913282292462912  0.6832836463766641  0.5232061594447723
  0.4639080278937048  0.8236825136620028  0.3411857401664146
  0.3038510042326787  0.8351154314857361  0.1726368005581987
  0.4773935155156839  0.6725277255778479  0.1855709983531060
  0.5006540434245973  0.8351267674005176  0.0047644518556314
  0.3451763852093254  0.5356045712207564  0.8294386908648707
  0.4995907751034997  0.3425838612092206  0.8362745713614135
  0.5133099445116180  0.4832799318888851  0.6513594452727718
  0.3222869870532774  0.5150620717931749  0.4870625668136985
  0.4783538699247294  0.3325211923274100  0.5090478852805094
  0.4936946014569359  0.5394642477768182  0.3334275413034595
  0.3375715450792004  0.4803685855751183  0.1974775145022476
  0.3232891426480796  0.1368160162393777  0.1665107305113245
  0.5026560064604256  0.5405260586231584  0.0120836079557260
  0.3419702646258289  0.1838247795479749  0.8195757972383797
  0.5147560833544619  0.9985976214928884  0.8595944913667001
  0.5147390794822896  0.1638006451878362  0.6568539226819701
  0.4889843264381600  0.0182031223230111  0.4842859964296021
  0.5530202612724709  0.1917639481933352  0.3270121017890816
  0.5253093746765584  0.3129150192180779  0.2101724637671497
  0.1821421657152748  0.3384154226742970  0.1214846996688370
  0.5230117466919817  0.9864098464006515  0.1681892353644848
  0.4879398433472716  0.1594384637236732  0.9946528677424371
  0.0002421600092672  0.8135448050728793  0.8377242729203316
  0.1354175998630621  0.6672842981956507  0.8190852760116187
  0.1550019310937348  0.8748380962966189  0.6098867986174901
  0.9873795608199746  0.8234282652876169  0.4571076549159617
  0.1678865949895879  0.6423877548713026  0.5586203669304747
  0.1620633052022578  0.8357390687403599  0.3194255205788368
  0.9910792776236332  0.8480775642134977  0.1809084151472324
  0.1961095916571088  0.6592727618800331  0.1733081701111349
  0.1687835897320864  0.8345066928619677  0.0067867018773439
  0.0166073876496913  0.4671994914317738  0.8133368336259044
  0.1968647660086084  0.3266561317183805  0.8240951025784967
  0.1653055286500630  0.4884332792339791  0.6485334017177362
  0.9887105882558545  0.4746975108077878  0.5011759426583445
  0.3454990134410897  0.1562587801128636  0.5008318166739052
  0.1562075359948081  0.4608635652625064  0.3269820211295006
  0.0159749460835758  0.4961049810186102  0.1630830838860214
  0.1389342536621052  0.1456164512529698  0.0203178646327430
  0.1787942652261893  0.5165964688296749  0.0063604879287561
  0.0190643560864159  0.1770956995628381  0.8345244680607850
  0.1722104266491908  0.0169736765761629  0.8301661327105655
  0.1116436056213078  0.0704315885635841  0.4916517904567716
  0.1764704634240903  0.3298339934857430  0.5251655723147600
  0.0824612666799899  0.1208493094201236  0.5470061959264667
  0.1742320858369521  0.1661510863896718  0.3212840235645639
  0.9821146824963575  0.1551380326310121  0.1903276291662564
  0.1598173467221095  0.0062089805647435  0.1838433644549907
