Cl O  Li
 1.0000000000000000
    11.7780000000000005    0.0000000000000000    0.0000000000000000
     0.0000000000000000   11.7780000000000005    0.0000000000000000
     0.0000000000000000    0.0000000000000000   11.7780000000000005
 Cl  O   Li 
  27  27  80
Direct
  0.6560839425606809  0.6738424967638523  0.6721720125114518
  0.6743888133812083  0.6565144174288036  0.3246277436978546
  0.6755703395847233  0.6594666135211937  0.9909938012160557
  0.6585533906250177  0.3546145940944362  0.6534160532534394
  0.6758663284167510  0.3115429964165146  0.3254470874240997
  0.6626007980269435  0.3396675022030185  0.0139908007355248
  0.6826462175913551  0.0249058335619722  0.6883580389176711
  0.6627166672701749  0.9887076754544908  0.3517287378358159
  0.6651385449778391  0.0254245781801333  0.0183240300709088
  0.3279100395862551  0.6715766093406639  0.6622575404727048
  0.3020457532655488  0.6530870440800176  0.3188030672852343
  0.3463748480187268  0.6431220867350826  0.9875359461490966
  0.3358048159796228  0.3225936712423556  0.6661579858365699
  0.3654613706488505  0.3476781478396174  0.3528551229110008
  0.3432892929860138  0.3450379728015887  0.0049781089412474
  0.3131763260478946  0.0058723873042720  0.6754312094673718
  0.3229807587424410  0.9811221000536491  0.3319819588977829
  0.3097254509186419  0.0055764452834995  0.0003414122013733
  0.0123590446200917  0.6863723667697481  0.6673093504096842
  0.0088098285323556  0.6803831171657460  0.3074955732614768
  0.0114380319081498  0.6758265652484898  0.9855413312151711
  0.0005531448359887  0.3450987818873096  0.6699051534384250
  0.0305711127596977  0.3246759978169030  0.3371319257111474
  0.9920449246551172  0.3158544496620303  0.0109968249652517
  0.0007093637997722  0.0258285972678939  0.6600488994191631
  0.0075068056136285  0.9919585741665434  0.3395250182923485
  0.9962057607891567  0.9764612602507408  0.9928784837125658
  0.8415103184059699  0.8574530210027794  0.8465118637004031
  0.8096317827406272  0.8274744656256411  0.4960902765600885
  0.8291682602167577  0.8276267717378130  0.1626580576939621
  0.8295776486820109  0.5055698700784361  0.8247062599682892
  0.8406099228890367  0.5031868988497187  0.4789755148499824
  0.8500752497899757  0.5170131926525224  0.1506117049389083
  0.8325960789050530  0.1806301035911811  0.8460691152573643
  0.8389160133373966  0.1606561812607131  0.5075257854500576
  0.8369625113372593  0.1681425104746087  0.1850224916607479
  0.4996541484745803  0.8378231032005210  0.8231895145705203
  0.4972195178627869  0.8303175130528493  0.5006216465523660
  0.4952870277904053  0.8302985658810002  0.1573633859041408
  0.4769286757433552  0.4910629760492312  0.8266001674450035
  0.5210687441175512  0.4946465016241328  0.5013642704267860
  0.5013500822967172  0.5026865801537537  0.1512044315830476
  0.4927127629997494  0.1686051170112200  0.8348784621266764
  0.4838571058870072  0.1540708953303095  0.4920036387959366
  0.4763035405285637  0.1608921504725137  0.1600849771015467
  0.1672982544742553  0.8266883199355420  0.8352504420731505
  0.1623971211116978  0.8275687156599677  0.5104506943761523
  0.1812077356731212  0.8312606611626725  0.1497771893052904
  0.1616646388324662  0.4975741230726931  0.8480762199402544
  0.1661467785662638  0.4915259267118269  0.5048758939136447
  0.1607075131348631  0.4916424842070270  0.1656796052935693
  0.1767273975400656  0.1671700408066406  0.8384714612875027
  0.1726033714998396  0.1611557712192992  0.5121857775896953
  0.1572860810199849  0.1544446566348206  0.1795179333844761
  0.6613578959419685  0.8263683232554232  0.8588505211151805
  0.8392160911958277  0.6703565005414817  0.8288388486727164
  0.7838171517752051  0.8139457800712625  0.6822870087856023
  0.6592690917018317  0.8087548217803397  0.4655770708593614
  0.8400266091027072  0.6576828263595000  0.5164245595243794
  0.8327207739676499  0.8295561444336296  0.3230430435395114
  0.6655618604241093  0.8295003555387405  0.1538888672954866
  0.8356388003740559  0.6751810658725015  0.1696763958117252
  0.8075095375518848  0.8703234137916305  0.0210678895089475
  0.6698523422272792  0.4833080767471856  0.8170632623393015
  0.0154845458578066  0.1914092022871846  0.8287713190089463
  0.8292924694544354  0.3574065894197175  0.8540217453015276
  0.6662632296658066  0.4909021680009731  0.5060636143848797
  0.8351796958254037  0.3535677628497718  0.5187972879443837
  0.8495371177211323  0.5030262122576904  0.3274834428156670
  0.6599869789907821  0.5342335403117366  0.1540587238328649
  0.8210047821576580  0.3422197429306703  0.1777990848203165
  0.8329233629589600  0.5295999041739659  0.9706744143522824
  0.6823514838070353  0.1759435530226266  0.8287766630830575
  0.8272971865112463  0.0081936790109551  0.8592401527003857
  0.8386923719329208  0.1576911108079639  0.6772296118620518
  0.6694521034646713  0.1571789602509458  0.4590820370290533
  0.8061382157465988  0.9921785851684001  0.4979251967945290
  0.8330333213323406  0.1815181308153793  0.3434041278451786
  0.6731269641243840  0.1590165828864994  0.1713208321924260
  0.8490240866064481  0.0063306979593386  0.1944665637214714
  0.8092818268571572  0.1655294302971785  0.9968487575523839
  0.3300638026666312  0.8254327054318475  0.8507194313840278
  0.5107198636302117  0.6646046168959228  0.8068619106857616
  0.5079314310210047  0.8224715215784522  0.6693284792593245
  0.3137072314710646  0.8334592618345507  0.5269617781387319
  0.5006492798507590  0.6570811321970602  0.4978123234716330
  0.4752641585993271  0.8543328104591628  0.3124439024906648
  0.3303536377163489  0.8209405253163865  0.1573047933946138
  0.4838989678008790  0.6373171267171003  0.1645856287890367
  0.5048341352194109  0.8661158461080057  0.9922437838196774
  0.3221975077591521  0.5114941810849041  0.8528999755630753
  0.4767422809160189  0.3196441067016110  0.8141773003775632
  0.4960491656324137  0.4805985097165301  0.6592536849972387
  0.3341830716711899  0.4885089944489522  0.4920816136954695
  0.4757486879854176  0.3330939266774383  0.5342689492923169
  0.5260888539785523  0.4649832871049708  0.3322019161299546
  0.3380411692962642  0.4632510783555330  0.1686394834924946
  0.5207798402322618  0.3334156035020692  0.1407718879960796
  0.5096746113165347  0.4944226173071976  0.9897420695162079
  0.1344665303174256  0.1446151432288201  0.9882179239016921
  0.4827374009044615  0.9958855058446889  0.7901888852834459
  0.5067383259902486  0.1709379571810868  0.6578310681775665
  0.1450540722963261  0.9985722452718409  0.5300060380533123
  0.5136987396077485  0.9826864740058672  0.4864955178035906
  0.4619204103975270  0.1380723568574948  0.3340095694408045
  0.3163378519523488  0.1795112488022440  0.1487948614400034
  0.4514434745585664  0.9932788748665443  0.1576992326222487
  0.4696522735013202  0.1767727347034856  0.9822571155410809
  0.9997158170478418  0.8269611106276776  0.8433791026797071
  0.1691951072645424  0.6647453846662634  0.8525574689950333
  0.1791164415802733  0.8374512851956866  0.6845310340874261
  0.9704903089567205  0.8222774345232282  0.5000809639026969
  0.1918924021504534  0.6523203313866868  0.5346415770053498
  0.1755948789252758  0.8263145586310310  0.3344918923720536
  0.0370279460753949  0.8135478084916109  0.1618010827791833
  0.1825418513866775  0.6672425247509950  0.1426012819720641
  0.1656808522260379  0.8558368434382125  0.9818329853259358
  0.9855560800318528  0.5124757498487549  0.8207801468545257
  0.1921856582173106  0.1609331014646620  0.6628000854512308
  0.2108424079782796  0.5034779079763244  0.7009423617999284
  0.9755705244694449  0.4963004115907583  0.5533693989034579
  0.1441037279048869  0.3264303723282797  0.5061799289676202
  0.1844685115600286  0.4865922532010349  0.3318106044002371
  0.0008254140412522  0.4771666829726514  0.1884830225602699
  0.1384618633608238  0.3299944244210031  0.1701605001010114
  0.1649498679069738  0.5232050312478345  0.0030898972556431
  0.1565241860904362  0.3354079512530382  0.8776412573403262
  0.3359831744530872  0.1739028049640814  0.8463120277169687
  0.1909852860554713  0.9977374611060899  0.8268485859203588
  0.0264548143720928  0.1459639450248301  0.4877335616393735
  0.3415320237678268  0.1336754793970183  0.4994822251751824
  0.1824614271198436  0.1847894531515746  0.3540191594174243
  0.9949017187767515  0.1765000857102849  0.1844118704654178
  0.1690969301454524  0.9881890282543473  0.1961658983180428
