Cl O  Li
 1.0000000000000000
    11.7780000000000005    0.0000000000000000    0.0000000000000000
     0.0000000000000000   11.7780000000000005    0.0000000000000000
     0.0000000000000000    0.0000000000000000   11.7780000000000005
 Cl  O   Li 
  27  27  80
Direct
  0.6637923838356633  0.6835581335444626  0.6780401999799570
  0.7003115191292854  0.6867861162493235  0.3353275814441178
  0.6631626332841392  0.6773057692612993  0.0112156024214173
  0.6798789375896747  0.3376073502231643  0.6574055962447753
  0.6379092110712227  0.3435757903264604  0.3240789329636994
  0.6627619086966120  0.3519675656121782  0.9999539796322843
  0.7000866631625117  0.9924242803439236  0.6484471871616205
  0.7007906234704450  0.0177565086724457  0.3391951728978217
  0.6749421062169079  0.9726137938178522  0.0290286008146272
  0.3246259228413566  0.6608301912032316  0.6761401792063425
  0.3281919384764618  0.6821490793371183  0.3509198690709496
  0.3504085905756358  0.6763135528346358  0.9926556368284030
  0.3263243262734996  0.3305645690391535  0.6684632548038300
  0.3187073810058043  0.3154733490883706  0.3256530461873449
  0.3371919260756188  0.3454237468628996  0.0033038809862387
  0.3247460228099260  0.9887487795086662  0.6589805596620294
  0.3230299272536419  0.9922379342255961  0.3376282863198495
  0.3430305294692564  0.9998859242116965  0.0036317467016210
  0.0012729525812856  0.6221271514415376  0.6750318101385784
  0.9927028444417769  0.6529164271526049  0.3187049806198748
  0.9901521219169976  0.6587727226703837  0.9856356198312968
  0.9805767961572680  0.3203877110586240  0.6687642638266895
  0.0152667297806026  0.3311506358333587  0.3184381007975897
  0.0104711254345455  0.3504984310564918  0.0012357317380364
  0.9914767906131797  0.0238630672820699  0.6699592716717125
  0.9861862407441574  0.9933899041821057  0.3244712770713702
  0.0087665650571699  0.9791933839571458  0.9979825647360047
  0.8454185157066736  0.8388172515169108  0.8279912758559529
  0.8544280578625748  0.8313358716443796  0.5057426352951285
  0.8398465087374515  0.8149360417882985  0.1834141170205041
  0.8181394464931173  0.4969365879125111  0.8147056647028181
  0.8315995497630676  0.4902406654781103  0.4778654346352067
  0.8307225548130764  0.5062862884826783  0.1709086394740933
  0.8271036449898926  0.1664849960179011  0.8446401719539482
  0.8370088863551746  0.1676924936118888  0.4974739761410200
  0.8315221416592737  0.1756819653790921  0.1499363671773569
  0.5029053485428744  0.8467470477898712  0.8400458876346332
  0.5209631773919841  0.8562149657570458  0.4921102666059087
  0.5089414397661702  0.8423432068388862  0.1878378565504718
  0.4966503122226553  0.4870735728297902  0.8313004722931414
  0.4724090252580897  0.5077288241240381  0.4817314269152180
  0.5103839349221201  0.5066036940965613  0.1716896637598358
  0.4928694202743251  0.1745649931617169  0.8321349575627018
  0.4900288829425330  0.1832179803123293  0.5152464638209145
  0.5132080756628888  0.1556041170013235  0.1588469731127320
  0.1653952772465517  0.8242021804723618  0.8245548742607517
  0.1518440615615447  0.8238919002906275  0.5135584246537147
  0.1546332937575979  0.8489029768396789  0.1642452976733369
  0.1752191530592189  0.4733809213651787  0.8312935897734528
  0.1597914689878265  0.4892691775813330  0.5089717920768774
  0.1798960073720942  0.5173128542469035  0.1766018192752478
  0.1555918769299586  0.1524598277601487  0.8386331087695751
  0.1520278450799402  0.1605789034459034  0.5018815012643091
  0.1446873746766845  0.1739688252577332  0.1563444079830692
  0.6737917942644520  0.8274026330984677  0.8520907019441096
  0.8478891783333081  0.6554009762748469  0.8122073910266083
  0.8247214834693737  0.8337902591362208  0.6593773166793829
  0.6684353721031288  0.8457786367842489  0.4802566648875508
  0.8077198784800331  0.5259266110352898  0.6156667985045872
  0.8494276239108018  0.8661076566452484  0.3320655100240925
  0.6602852542293071  0.8244264696433964  0.1912503919965170
  0.8238187397986645  0.6713012161723420  0.1948308406802636
  0.8388722678327989  0.8056098227558930  0.0007505476269570
  0.6550635675122445  0.4867779078810420  0.7954810058539994
  0.8546923466186243  0.3376375928243850  0.8453926337829821
  0.8006467534812767  0.4816191759764266  0.6561250427285618
  0.8639107125189655  0.6693554064000921  0.4719313666449446
  0.7942051199066715  0.3450699448654860  0.4671975696029970
  0.7795195232780179  0.4948375408636610  0.3275612450137659
  0.6580308646625400  0.4929501920233558  0.1400102555832537
  0.8557499874677411  0.3225319195822555  0.1724927323512875
  0.8028876209211260  0.5131169058759297  0.0249166799119714
  0.6469047047898770  0.1777982187271643  0.8417789060922697
  0.8539727589424566  0.0066095532159363  0.8350245632113342
  0.8153621473716421  0.1587263619367891  0.6540143358816505
  0.6586793599588634  0.2053079333211148  0.4923085641437655
  0.8611580285267302  0.9969333280095909  0.5143931528357347
  0.8428246964630195  0.1511073215491298  0.3155659443606391
  0.6550806118698266  0.1541577150033150  0.2070711590343114
  0.8228186692024738  0.9760966878456865  0.1783043522192040
  0.8075152652182264  0.1677936666513140  0.0032252750836368
  0.3382792427302173  0.8148698076576464  0.8071752974842668
  0.3263418969414110  0.4440550717669970  0.8570547799977620
  0.5306063971841731  0.8626634818513399  0.6734119484017075
  0.4841974454664537  0.6661844676378283  0.4893658011518899
  0.4761190272536253  0.4941679121833520  0.6359176410390041
  0.4988820299598593  0.8107487168096406  0.3386338831744962
  0.3477910063963506  0.8425069298366594  0.1754428232023611
  0.5169324499789512  0.6686390980421291  0.1595682206907069
  0.5243937490881549  0.8540159602310686  0.0099008937686635
  0.1481123998716944  0.3160126552341019  0.8657826246713423
  0.4993366811134185  0.3308835738267288  0.8392850858111527
  0.4820354436051561  0.6421878744909042  0.8131802554273235
  0.3185903781710949  0.4793079448941122  0.4657705398736419
  0.4822030936876930  0.3371666260506224  0.4773239422773388
  0.5598494136336296  0.5170801441106028  0.3751930585385430
  0.3376793906539297  0.4948519941550075  0.1829729879938627
  0.5041191011326970  0.3382892459826833  0.1692619055463787
  0.5065417075777399  0.5225804109334217  0.9882834263690978
  0.3183656031751411  0.1858181760080480  0.8349585719931417
  0.4698775535457341  0.9989522316591385  0.7958332289204257
  0.4559394795261023  0.1786533920412011  0.6703621015005563
  0.1780185976999279  0.1523252036507656  0.3308003409636538
  0.4994678133561949  0.0165821926674062  0.4797011645778458
  0.3392245770521771  0.1584026203562516  0.4861576158124868
  0.3533197749477630  0.1845863061972800  0.1693423399345652
  0.5058831718997528  0.0195047648262462  0.1923320002083148
  0.5051541511230705  0.1481151461144297  0.9871252830201578
  0.0001221214350766  0.8355669208657661  0.8564138959585060
  0.1520502841183962  0.6376103916167120  0.8241652426755465
  0.1665024115093129  0.8099164987230364  0.6792898226429810
  0.0040464463905193  0.8139574284593730  0.5065841650260173
  0.1605638395171957  0.6361538480235149  0.5211134474869160
  0.3377239853329720  0.8410324512068615  0.4631304053210233
  0.0025118115022358  0.8580999664435749  0.1937802645351803
  0.1773676935217134  0.6676258292023001  0.1840421671848108
  0.2179615233835569  0.8352095156668684  0.9846143994039227
  0.9921160704180670  0.5002038819504180  0.8585537118151599
  0.1543084489496396  0.1415978756727153  0.6568711483482360
  0.1694335248244800  0.4878176136935580  0.6738393123889712
  0.9847734175981820  0.4562849043998718  0.4915255763156413
  0.1393142522837635  0.3148022426905990  0.5429984835933204
  0.1591426801722811  0.4961458268856794  0.3507811255711056
  0.9966655260020634  0.5224090766785808  0.1645088374493025
  0.1592088738175232  0.3135296040720274  0.1599045329910289
  0.2136170947716500  0.5219145878816465  0.0049621358597099
  0.9995838645889349  0.1464377040032802  0.8393564211034567
  0.1399982532845991  0.1241971553908925  0.9940978926244880
  0.1672010783498971  0.9893333268348298  0.8182938865852722
  0.1352438188049377  0.9807339537534918  0.5048617942311936
  0.1734868835816661  0.8324022069781921  0.3155407017075451
  0.9924914252030097  0.2040431691147754  0.5060636036250855
  0.9909413141341944  0.1546421229331758  0.1738532040667109
  0.1739084783980142  0.0273988681496737  0.1489336447868155
