Cl O  Li
 1.0000000000000000
    11.7780000000000005    0.0000000000000000    0.0000000000000000
     0.0000000000000000   11.7780000000000005    0.0000000000000000
     0.0000000000000000    0.0000000000000000   11.7780000000000005
 Cl  O   Li 
  27  27  80
Direct
  0.6675702346631507  0.6588260938154837  0.6504389030748606
  0.6608467821499947  0.6612673640345064  0.3387384729171857
  0.6553161917551352  0.6630924058289230  0.0188366146892740
  0.6633414121393104  0.3423943159831622  0.6638367802697425
  0.6538928057126742  0.3296115943495231  0.3418557887539919
  0.6952102313062687  0.3435028065071563  0.9978141670527698
  0.6991947243811573  0.9808232772077823  0.6611271727536769
  0.6582196838993747  0.0021355124501646  0.3284671422325751
  0.6569654863850281  0.9940655152026026  0.0075754846834898
  0.3335282954020650  0.6807750968695839  0.6490711844710589
  0.3361671546642707  0.6491595544271728  0.3365231517710050
  0.3372409491919513  0.6627256485003306  0.9668562632834817
  0.3280889591211970  0.3391593697877927  0.6850497585712417
  0.3376273824297717  0.3374315537053327  0.3317815410449401
  0.3472143679875623  0.3340388156247452  0.9839096630289876
  0.3332510715575417  0.0251267396357956  0.6619645324873428
  0.3073807326680503  0.0060242214732407  0.3447996448519358
  0.3342492798248754  0.0165384076848479  0.0061537237506870
  0.9851481078823621  0.6515588817615037  0.6439470675919372
  0.0432569546641173  0.6520247473736146  0.3370082884382445
  0.9868032071079043  0.6468638697422728  0.0156925202841346
  0.9910893999879592  0.3329600818770528  0.6557854063107499
  0.0215567546967668  0.3249226753844875  0.3119821918021077
  0.9948556975785926  0.3571303169471841  0.9994454491544569
  0.9936463446141778  0.9936671191587312  0.6832207896920617
  0.9728032928897673  0.9951015343124765  0.3265967972644422
  0.9882349420009952  0.0112598642702091  0.9978478831756460
  0.8245745572016253  0.8168574097477552  0.8489717826197358
  0.8347391481029447  0.8147005090481094  0.4827440436746132
  0.8294819556813701  0.8062479651620805  0.1862608645488461
  0.8284434239457419  0.5062064221436855  0.8225477652639865
  0.8526019587324022  0.5024150039887726  0.4925545491806498
  0.8329365757110415  0.5000855544719878  0.1739184824763545
  0.8231291470961600  0.1817076227414320  0.8137711761568456
  0.8585896698908269  0.1652032595569013  0.5029739147666842
  0.8391350539135828  0.1790621846001121  0.1663788643416333
  0.5036188991778642  0.8570080863124607  0.8415550174614594
  0.5071609272075835  0.8378683658536836  0.5021958661585718
  0.4936400553373220  0.8189543920406988  0.1740056880493525
  0.4992862720629530  0.5130967555165896  0.8353806685632390
  0.5059233287113097  0.5062305109625962  0.5105721355322850
  0.5000395031147759  0.4928282208580316  0.1576293296096807
  0.5097085930839127  0.1819922351732683  0.8448063197624425
  0.4861563677964246  0.1651978446333227  0.4954935875148114
  0.4908425135108799  0.1655171328187675  0.1754090742993061
  0.1569481030835939  0.8370162289453920  0.8598506980939317
  0.1599513816419684  0.8382649609293975  0.5153391306103786
  0.1825234652763059  0.8490617719922472  0.1681507892782164
  0.1487930965965227  0.5026044352218539  0.8261059469722696
  0.1786219672917823  0.4824956155054857  0.5120773425882228
  0.1883806109876933  0.4826153308626607  0.1627606832558281
  0.1600140530565463  0.1730096765430879  0.8261009267814378
  0.1505255077730103  0.1634584800876790  0.5091855912128641
  0.1715334173518411  0.1681066403662635  0.1469333778243294
  0.6790852973836400  0.8734927735877634  0.8405686309338265
  0.8080408825803024  0.6636830069890408  0.8548049204830324
  0.8009725348599182  0.8101073583202727  0.6422904855882563
  0.6684066632323880  0.8294770359074750  0.4877108342507312
  0.8823172779741493  0.6446177391991323  0.4870842010757722
  0.8717688044158353  0.8166264809694914  0.3445368540560538
  0.6644112390968173  0.8337908373067668  0.1375988795255923
  0.8161437944661407  0.6639640162193928  0.2037982939386636
  0.8160667102456265  0.8110202233434655  0.0171517485660778
  0.6835755341994243  0.4707972348488151  0.8040972684239267
  0.8726185121995309  0.3335285172752316  0.8344809208128647
  0.8418647421929757  0.4843019530405128  0.6691456725598032
  0.6784380166496146  0.5149141860539387  0.5243028027968246
  0.8364098190292828  0.3362507764819014  0.4994339110074617
  0.8005732677471487  0.4959403343196612  0.3297826144148568
  0.6610830145169598  0.4955227273161917  0.1925879446560428
  0.8335854758614645  0.3426922481148668  0.1776464802366058
  0.8691813818669506  0.4933072847137810  0.0120081961598497
  0.6669814148610699  0.1967016372229634  0.8327453922598123
  0.8406898555966899  0.0154444261196390  0.8186080490524852
  0.8050415614707488  0.2123484384542713  0.6578674090020179
  0.6860010151085726  0.1661616504235649  0.4947474414097270
  0.8448960467763769  0.9908136252305911  0.4890313873519597
  0.8492232893317668  0.1960609151253473  0.3135380056204629
  0.6815889151339609  0.1351713444094701  0.1768650106113540
  0.9257028197634046  0.9284199114659560  0.1589510871518548
  0.8661444902969784  0.1527299375473307  0.0183235709228993
  0.3366709146200800  0.8230405034945215  0.8328273347295188
  0.5362490059932224  0.6745706673117823  0.8682828373333538
  0.5208224049065459  0.8941788747643813  0.6549018527243495
  0.3221942834348007  0.8276096868596773  0.5066291804879890
  0.4922567093652858  0.6758670506232801  0.4938599607385630
  0.5372453114462892  0.8277002122362900  0.3359632183089122
  0.3251594348583698  0.8702994463938061  0.1913068850722049
  0.4985160371389579  0.6363866505054426  0.2089949606723870
  0.4937345887695179  0.8300258561245408  0.9998744543822844
  0.3125992412804331  0.5348856387744005  0.8185975228459024
  0.5141585469168128  0.3564701618527995  0.8544962597176954
  0.5141308144110079  0.4898099525766291  0.6636885226985639
  0.3321077635810045  0.5061440341269772  0.5215930738245295
  0.5103996790314868  0.3560294376802576  0.4735134106950620
  0.4803001127640557  0.4881069742931635  0.3230533724880803
  0.3359004772690353  0.5145873473395410  0.1319814074410144
  0.4982427201364932  0.3192738675926207  0.1518931138177663
  0.4798738013974503  0.5023955709920042  0.9852634268180527
  0.3493588801517685  0.2095375971706658  0.8333743735885477
  0.4760076876612090  0.0199772890114077  0.8388957737953521
  0.4840954175183223  0.1702022562766218  0.6738623847587586
  0.3224732279092462  0.1938032462403755  0.5127770114427027
  0.4580209511919436  0.0050692753456365  0.4873108384005829
  0.4887272318126460  0.1806328970493230  0.3331139563712793
  0.3257400968503488  0.1508282669932614  0.1755127169487372
  0.4947514608108312  0.9981907289202840  0.1927479632388071
  0.5197955329689788  0.1437127335275993  0.0005284335539001
  0.9768168443676358  0.8378435887828040  0.8285464074830934
  0.1420266485780168  0.8396356349681243  0.0235728861589915
  0.1601065014901307  0.8553808967163919  0.6883334492001718
  0.9920994850298478  0.8348100979872662  0.5190637478389003
  0.1783987712268159  0.6580620936446185  0.4955970277371929
  0.1801199881874567  0.6776416880823288  0.1626582754114000
  0.1489579025790117  0.0019651249314532  0.1697389306964039
  0.1875897892327467  0.5184130566366681  0.3121240526785166
  0.1750115391619795  0.8282174538336071  0.3312895825861266
  0.9789388314618900  0.5231278660213567  0.8274137876547787
  0.1488352216655591  0.3358789989624771  0.8367281849474836
  0.1726276570115384  0.4729710179644035  0.6703054985835935
  0.0363074290915516  0.5194179449966410  0.4941348161866052
  0.1087795238725588  0.3356356209206587  0.4819256311127967
  0.1695166771413869  0.3235062528325352  0.1497105150041647
  0.0037721397388434  0.4777162318919524  0.1783150158108466
  0.1806637274855758  0.4780503984655480  0.9969891240561995
  0.1225058187128256  0.6743787259832851  0.8592580425421722
  0.9943583849243154  0.1661858708200580  0.8149803943807556
  0.1840188141349246  0.9819218842310762  0.8623439515793095
  0.1558004732895462  0.1663491282356170  0.6738517370959459
  0.0055131344548214  0.1214003739193411  0.5201649914745161
  0.1892611079256438  0.9946138970385888  0.5273348766030147
  0.1854132935946927  0.1700100720356650  0.3331457576607825
  0.0033934667317474  0.1670453558302526  0.1465791203660540
  0.1727737081278754  0.1728871474499225  0.9946176952811128
