Cl O  Li
 1.0000000000000000
    11.7780000000000005    0.0000000000000000    0.0000000000000000
     0.0000000000000000   11.7780000000000005    0.0000000000000000
     0.0000000000000000    0.0000000000000000   11.7780000000000005
 Cl  O   Li 
  27  27  80
Direct
  0.6502854457467028  0.6429063073195819  0.6457647318355909
  0.6586298126173878  0.6865965827894107  0.3112368866844770
  0.6639109724016437  0.6478773488637429  0.0021150239992864
  0.6660973059943116  0.3120447601639799  0.6767283377218342
  0.6828597636671720  0.3182641693234570  0.3076667820229685
  0.6695316833190162  0.3358890471987321  0.9922393845852421
  0.6869519479324848  0.9711357641103643  0.6844730347005763
  0.6777448369761053  0.0094000185711013  0.3326353084061791
  0.6764897082973301  0.0148471147664016  0.0012606938413554
  0.3099187947749016  0.6696684183336904  0.6818725758496931
  0.3300585251017544  0.6534866428955143  0.3260102759245728
  0.3316077600409953  0.6839855977319445  0.0122529060747172
  0.3329889805290100  0.3339606663954588  0.6485500470682329
  0.3159719101130747  0.3342943066587253  0.3172882206646130
  0.3157665883565942  0.3256404693145044  0.0004586028302222
  0.3407552157458372  0.9768193969457887  0.6783015602664612
  0.3473579407665698  0.0054120329970216  0.3155606474946126
  0.3659579907109261  0.0011132885328642  0.0058283193880325
  0.0053716810917098  0.6755010298866578  0.6781879986915962
  0.9851789477722391  0.6893867562712449  0.3393106642523335
  0.9793812093392537  0.6734344116511648  0.0268685945217675
  0.0070459488936867  0.3467497442384576  0.6773962660149261
  0.0172276752447609  0.3225000767940358  0.3407338073823348
  0.9882582731124985  0.3308016505864206  0.0161864685039086
  0.0331765950521943  0.0114034953817105  0.6774710425670741
  0.9688667587073129  0.0009416841644289  0.3387348200241366
  0.0150354371080879  0.0090158670656814  0.9951258975281062
  0.8295484442398632  0.8148517703942140  0.8408329509691310
  0.8102536646610385  0.8105984541973638  0.4971834393193032
  0.8367327421742984  0.8481040569894387  0.1549681131950365
  0.8310427607205286  0.4887919547984289  0.8390309453729667
  0.8151912652565941  0.4823279732775401  0.5242285838342606
  0.8156354711743904  0.5147466247968130  0.1900075978477417
  0.8483541600666843  0.1625064127995564  0.8283317041480583
  0.8617129688409798  0.1659882896314661  0.4936502371089496
  0.8385084322540052  0.1637162889113777  0.1588449859289677
  0.5206545234269306  0.8346297028551914  0.8256155379955834
  0.4990108613345530  0.8350423301532390  0.4980156978913173
  0.4996390329550896  0.8487304472519380  0.1651309531023764
  0.4940418035754788  0.4948639160949264  0.8144911189955476
  0.5116420663215141  0.4683912352764362  0.4812867621378825
  0.4943523266696728  0.4981878492213309  0.1654781357352658
  0.5104415119753299  0.1686623914430194  0.8329029927545305
  0.5035941741077758  0.1538411686910865  0.4843619933910623
  0.4954152711074911  0.1845934711015317  0.1712209708917044
  0.1606160522535893  0.8603859538594886  0.8339642772905415
  0.1726242475097803  0.8590462106739515  0.4953366568597521
  0.1605847671530628  0.8506858115809323  0.1590034255807445
  0.1653482197577871  0.4952431024443685  0.8417277594994930
  0.1460451710339835  0.5001625655762737  0.4968083015108544
  0.1601566946711252  0.5094052632079852  0.1711980763923867
  0.1827406607732783  0.1697581391842367  0.8311024446331240
  0.1674205059506708  0.1636342553494989  0.4962972136958471
  0.1462644906209487  0.1700277112862825  0.1787202250727215
  0.6757744930454355  0.8057266019075410  0.8094131959691608
  0.8376775097005191  0.6539156262991753  0.8737327715854698
  0.8478702784471528  0.8149757367194320  0.6804950192912774
  0.6790890335567353  0.8526636857978499  0.4724578253956969
  0.7815172016606767  0.6446840216697857  0.5044395583709613
  0.8261956045307656  0.8316577498827534  0.3227609776513816
  0.6666961256926461  0.8157148383631880  0.1631983112097076
  0.8512026325388237  0.6708662601574089  0.1506302735835963
  0.8119652258514101  0.8380966304494829  0.9941870984369280
  0.6617022503772821  0.4920944306575685  0.8374086140260900
  0.8135031856039844  0.3184659890919782  0.8141081270175717
  0.8355257101625247  0.4636807578306106  0.6826928912257766
  0.6673710984470663  0.4379768139759482  0.4840419967109436
  0.8293162199284814  0.3096886307620484  0.5134016516264200
  0.8447103112309809  0.4565301437572406  0.3261878246898386
  0.6616875541734762  0.4961939427820793  0.1508014458967974
  0.8868829101386123  0.2991790839253859  0.1879200891407228
  0.8520124217083241  0.4746123448231306  0.0148945512391940
  0.6690485709222733  0.1693694792488699  0.8206273306376105
  0.8423475827072305  0.0016644823652335  0.8236629266744648
  0.0306638475990209  0.1402928072274799  0.8421459737841116
  0.7576039274873970  0.0403946736038414  0.4912836624712553
  0.8769862516802364  0.1443099416641276  0.6634825642120746
  0.8171462247314890  0.1677347998519632  0.3324840144292557
  0.6899847099906438  0.1776228551607283  0.1536253133610492
  0.8259115588946685  0.0121247720585738  0.1742160207905098
  0.8316361958593418  0.1842005804408268  0.9852996887436916
  0.3249438210804424  0.8488665592001364  0.8235387984076069
  0.5222113493805343  0.6876377865620942  0.8594864416546001
  0.5248641558664622  0.8057352657852670  0.6432160943094233
  0.3386824842134441  0.8411709305382343  0.5201028371641123
  0.5248366662731170  0.6581853390870489  0.4837888819280359
  0.5040480965239562  0.8024696316491673  0.3295506238097798
  0.3189944496052253  0.8542113620488085  0.1475156500265507
  0.5229511797616689  0.6647257165764832  0.1627812305165671
  0.5010491397830923  0.8605591504431865  0.9965475420653553
  0.3399918228561208  0.5182339975231213  0.8458912790571097
  0.5180622426288540  0.3339545126131489  0.8395701300624683
  0.5110993594013482  0.5102113682051819  0.6365085120769614
  0.3128356471044194  0.4848474208231455  0.4914717576858088
  0.5061613944371032  0.3055629245773102  0.5195017502828216
  0.4986695693288091  0.4828794250462517  0.3352899974636691
  0.3123660365918894  0.5100541228729980  0.1900857751743244
  0.4714173014566292  0.3311797843152046  0.1305276582563005
  0.4881568848728766  0.5227971485621967  0.0013236700826038
  0.3484452979065783  0.1569125538303226  0.8404248580369957
  0.4931172787542250  0.9936464971666230  0.8329361907906766
  0.5356833553610054  0.1759067393617393  0.6443430866657570
  0.3695758883988617  0.1955359891547338  0.4737249377558124
  0.4893838761917476  0.0063338921070650  0.4946275549047573
  0.5450207888519625  0.1428652198106314  0.3282206376080366
  0.3259795998081949  0.1720772041933735  0.1937435105056351
  0.5046344467160311  0.0158695244526924  0.1795052169286375
  0.5287600263790051  0.1787049491974453  0.0150638890572575
  0.0098094779151081  0.8073447227717848  0.8277377022135060
  0.1894597206194565  0.6654769638432193  0.8556030811337270
  0.1519970121192067  0.8401210628878246  0.6795845833926807
  0.9941536788014426  0.8580129420416147  0.4934356239508893
  0.1439192922796996  0.6579884585385398  0.4596464198491195
  0.1650391035315882  0.8697941963324206  0.3402964030134075
  0.9962975925406831  0.8426016849253033  0.1388804562136044
  0.1932559160527416  0.6859288974087784  0.1544150420099275
  0.1752137752999813  0.8849610025435503  0.0048073469337943
  0.9957081445821637  0.4772841389663178  0.8181052515403594
  0.1797164613793205  0.3339111527391096  0.8463545131175751
  0.1641549932708011  0.5054459115726659  0.6550507488559320
  0.9806317606363681  0.4992749634488797  0.4887717856973077
  0.1979376893429240  0.3455715378385572  0.5008234420410628
  0.1537383300858797  0.4743059107553400  0.3382198860951856
  0.9893975717682831  0.5332426677230486  0.1907596143372665
  0.1542849843335140  0.3285848112373673  0.1411742380842373
  0.1386661787631756  0.4931566463580079  0.9979237584934437
  0.1594583011070581  0.1583515976050755  0.0143118799158347
  0.1777394778414214  0.0113729073893363  0.8496050057103594
  0.1509810105142070  0.1729867089275416  0.6685180180434407
  0.0189277132753299  0.1923322774531284  0.4850294763446448
  0.1799720052868241  0.0062497298982420  0.5132075645711964
  0.1633899708433350  0.1712951070442676  0.3247534671012854
  0.9907501020175143  0.1124071957236443  0.1629234962470753
  0.1652172798207079  0.9982743176385152  0.1911150559937825
