Cl O  Li
 1.0000000000000000
    11.7780000000000005    0.0000000000000000    0.0000000000000000
     0.0000000000000000   11.7780000000000005    0.0000000000000000
     0.0000000000000000    0.0000000000000000   11.7780000000000005
 Cl  O   Li 
  27  27  80
Direct
  0.6795447436538695  0.6384124240134704  0.6624380611523084
  0.6459923792002139  0.6766388290440110  0.3421212224118966
  0.6886419367222781  0.6704210393009311  0.9697804269488554
  0.6616580466325510  0.2933208625472022  0.6537846691475968
  0.6623624522799932  0.3444970927408846  0.3342343204307611
  0.6623536264606277  0.3430728160194050  0.9865503200202838
  0.6859224507661890  0.9885288640058411  0.6757040368816251
  0.6705494118768549  0.9989459584157294  0.3300847683395716
  0.6741131805717087  0.0006645325568124  0.9852230476061754
  0.3657335864065784  0.6801977799750828  0.6826966768854327
  0.3516412629750980  0.6715161696396470  0.3488262945489425
  0.3509359666486371  0.6618546504421678  0.0035060977396248
  0.3017814563708309  0.3218571656808501  0.6728803819657756
  0.3168430410015421  0.3355278335678675  0.3426215815932713
  0.3420643177989710  0.3370029599642242  0.0115287197828420
  0.3407829545745586  0.9883114206645924  0.6545853895852722
  0.3358581068831323  0.9786813459789415  0.3337060668019417
  0.3242619114011351  0.0150590619401567  0.9852398376647764
  0.9820321357810292  0.6811257865415907  0.6654727665101442
  0.0024027203993172  0.6699920558972702  0.3363059993424958
  0.9939162786805060  0.6634464557899544  0.0058805142114480
  0.9950356863483225  0.3647772467120937  0.6737996841691477
  0.9778523828391981  0.3130239172425064  0.3072504708264439
  0.9993777010176622  0.3404160824487135  0.9936727793376751
  0.0226446433337118  0.0011866421293089  0.6601779631427407
  0.0100910147180298  0.9953438274623077  0.3265717076206602
  0.9939478547699164  0.9923923278454851  0.0013941589343410
  0.8337194599212342  0.8250627547718852  0.8255480693337555
  0.8240449853925761  0.8380248065288270  0.4881950510639194
  0.8233708223463546  0.8383958148254624  0.1490407761780030
  0.8575465001713546  0.5083685100269612  0.8431538785809518
  0.8370399922732045  0.5045012222138320  0.5084218857502454
  0.8008542948157990  0.5071858502319680  0.1772258683804732
  0.8490029450837941  0.1712664608133062  0.8397090560204842
  0.8426953991868904  0.1432592513807338  0.5064049835981513
  0.8174380094038005  0.1604210267731259  0.1696456433795881
  0.4934547714543518  0.8448914559369196  0.8348743693369810
  0.5108733761660130  0.8352970615491110  0.5158407156644285
  0.5049378911864033  0.8393830920321139  0.1678514818315986
  0.5120491129559075  0.5096969982685368  0.8341230410994249
  0.4830230983036974  0.4897766381354115  0.5041512822833533
  0.4776612106120332  0.5176885752770568  0.1708659748485249
  0.5020371520500392  0.1579901005763414  0.8215425238457014
  0.5083926731577146  0.1580494521873047  0.5168033777418402
  0.5172793420944662  0.1846445001573204  0.1661304571766551
  0.1659606185127185  0.8258420989131154  0.8364568630404827
  0.1695835566341909  0.8425902652362689  0.5108262737608181
  0.1529402070373567  0.8007170154496897  0.1733236416585708
  0.1647930192902208  0.5036543484088317  0.8277675604771594
  0.1486131770303689  0.4976315768854040  0.4939183924954748
  0.1604424976241187  0.4895469644048558  0.1756645890317768
  0.1778488554992749  0.1716793107811087  0.8354869945601029
  0.1694291250379975  0.1795823461981028  0.4915593481440283
  0.1566266566456631  0.1886373534693601  0.1694299371154595
  0.6605657907579405  0.8465792117062498  0.8157068758869890
  0.8402409307242295  0.6684472541104169  0.8279771939297979
  0.8428964497326230  0.8247437297416049  0.6758480434847605
  0.6672675026059618  0.8221205180903386  0.5212805377702158
  0.8175302351676301  0.6635451187339636  0.5068041292546911
  0.8435181436875699  0.8578633051630655  0.3183247891316863
  0.6509664976355299  0.8271742308415849  0.1577269411220563
  0.7811058357332537  0.6626332658460192  0.1836425426998540
  0.8361787866330874  0.8065708008720526  0.9821179811362123
  0.6774617288273531  0.4927353523788012  0.8301544992760506
  0.8494041554962405  0.3320684969879386  0.8263678179141001
  0.8342799399363611  0.4918676690730948  0.6567754883210640
  0.6504773933981167  0.5089560342959240  0.5002582457495057
  0.8245232800255369  0.3346224988309225  0.4834934399228695
  0.8063735897812869  0.4886530060681022  0.3462337708384063
  0.6358756015680262  0.5020360251175382  0.1442575565718785
  0.8405482149856288  0.3490130782773871  0.1666172739884069
  0.8275535319882801  0.5016083777324051  0.0043960540303479
  0.6638349471247043  0.1566941929684103  0.8605996894880885
  0.8526170776286057  0.9812159009082974  0.8105319498184003
  0.8634395564413535  0.1400866122312527  0.6785244934500899
  0.6895947203596658  0.1597826528292860  0.5340819839059494
  0.8484444893391638  0.9882941789406369  0.4886075569057374
  0.8389593245873574  0.1736850996881757  0.3258145494840738
  0.6624673499771323  0.1854375081244034  0.2098729993107087
  0.8372185329310134  0.9991952862708835  0.1508153225448794
  0.8506987169642913  0.1510229562594400  0.9972222823024957
  0.3421601062788749  0.8010553925059184  0.8240386113097747
  0.5162270453194607  0.6658265525545666  0.8425393910289728
  0.4987792911126470  0.8447551010762617  0.6696611441094603
  0.3482156709843490  0.8577977997697924  0.4797665959968013
  0.4894103599727611  0.6854716523855503  0.5251437770423516
  0.5023251652563100  0.8305018886257034  0.3500787916760719
  0.3248316423324319  0.8699086862682809  0.1767611768452503
  0.4385919398320757  0.6835790404419538  0.1452213522407682
  0.5083417425120177  0.8350234611487768  0.0133171399936352
  0.3276851552381079  0.5062205161175009  0.8229573269812563
  0.5243559083530670  0.3481675404909146  0.8450679477918132
  0.5329057791645773  0.5076913105749946  0.6543835293313411
  0.3200566311431715  0.4880194903734544  0.4999284111147732
  0.5169588191040185  0.3330818467985876  0.5324496121774088
  0.5000231648474605  0.5465552393557664  0.3430823055583208
  0.3163323985260441  0.5109114795957381  0.1430653422201409
  0.4989211924744658  0.3360960058108819  0.1890335191585558
  0.5068801787279889  0.5028439519581819  0.9891629738357406
  0.3378322969277459  0.1746315676016137  0.8200371143627142
  0.5047378122905093  0.9890150457027246  0.8473125398893763
  0.5198994363691676  0.1461318430358412  0.6703699626665856
  0.3310220436956913  0.1590471139016043  0.5053214320866767
  0.5213345226950995  0.9945120253000321  0.5058060424435873
  0.5212894219484331  0.1895240041896206  0.3788071575944469
  0.3258691012046966  0.1845628006000735  0.1608890743076595
  0.5112662465840130  0.0161942057807469  0.1704169511669464
  0.5179579990211906  0.1586747392223835  0.9822348878180730
  0.0136147433424589  0.8262700296961181  0.8377621126567560
  0.1653889037963350  0.6550801863124950  0.8137919969679289
  0.1639279270507502  0.8354249954445025  0.6634328281597976
  0.9874087766091073  0.7977762362429011  0.5185719828748085
  0.2059781790495609  0.6597237008902896  0.4864533282431471
  0.1856856163002071  0.8310027741174075  0.3422513830048345
  0.0074654998264891  0.8390535407952509  0.1506250816035994
  0.1381691760723895  0.6600926039456085  0.1780127630506561
  0.1837886319323377  0.8196194914062535  0.9973963989803927
  0.9970013036073826  0.4934969234250704  0.8609432486767887
  0.1402812290591810  0.3242581731596934  0.8250327710361152
  0.1508424251575670  0.4627991852258638  0.6695104169282760
  0.0056559487620485  0.5260848444432774  0.5201270274703751
  0.1800556342239595  0.3165247108822078  0.4741808644736117
  0.1638944456167347  0.5082311835164649  0.3542203276560945
  0.9952439641723128  0.5100742818037121  0.1834638198577001
  0.1842407527477760  0.3371607923348521  0.1731852625274162
  0.1798655957097292  0.4953396168582183  0.0145507658590591
  0.0012568477669483  0.1397484780874836  0.8336045039689899
  0.1892067943438102  0.0122213889511174  0.8396268706383181
  0.1679838566314672  0.1926923923710586  0.6591231967577290
  0.0107009641085889  0.1515873532379779  0.5188954613001816
  0.1614743290244027  0.9967193496288742  0.4815181162867777
  0.1976125168532504  0.1638996445295359  0.3115450618987221
  0.0134033588958408  0.1570774379801984  0.1777093653886104
  0.1565455137628028  0.1709466260748274  0.0012936102558472
