Cl O  Li
 1.0000000000000000
    11.7780000000000005    0.0000000000000000    0.0000000000000000
     0.0000000000000000   11.7780000000000005    0.0000000000000000
     0.0000000000000000    0.0000000000000000   11.7780000000000005
 Cl  O   Li 
  27  27  80
Direct
  0.6553363037054656  0.6997811715929555  0.6868990794460810
  0.6571736530645022  0.6564515806402291  0.3460669069881533
  0.6615478586954154  0.6590281530992512  0.9800566290966461
  0.6464206877006110  0.3519440920520103  0.6983468959006699
  0.6614890738801912  0.3387190268294319  0.3417832267338524
  0.6623350165207631  0.3047044202078544  0.9927725460083868
  0.6661290257419117  0.0030786056071355  0.6640197216716968
  0.6582603219525417  0.0203045861152991  0.3405794335548737
  0.6636157724640265  0.9907958923867494  0.0436674936951999
  0.3240158544282610  0.6561802879082611  0.6482857148673908
  0.3528883484060013  0.6615595843261971  0.3229820452729438
  0.3208670004571162  0.6639564420505220  0.0147354950210401
  0.3281086459747229  0.3494933077616532  0.6843032359319302
  0.3342143721031054  0.3242892979915612  0.3441942138662443
  0.3483727677235981  0.3122829853069322  0.0080692914078690
  0.3244286841533584  0.9731167064969705  0.6471719612401055
  0.3444719175056336  0.9834505744882386  0.3244982441176785
  0.3390631274665606  0.9822121118814967  0.9929913196749024
  0.9871557650019078  0.6914257117199484  0.6364985901921447
  0.0096583744076294  0.6528331161565545  0.2989699866994248
  0.9975050588832377  0.6729071993911991  0.9744366254087783
  0.9989791041926323  0.3472015906469268  0.6529967995943654
  0.9885364705661149  0.3282241357111654  0.3358244828862355
  0.0148788022814770  0.3401870277936402  0.9949269590693678
  0.9987778728858703  0.0047912744530194  0.6662490507697145
  0.9708924936987035  0.9796607150216081  0.3526153815595743
  0.0187744982006894  0.0204717415167333  0.0031695608015073
  0.8555502994124420  0.8345222028400122  0.8330950525798750
  0.8291964837575181  0.8422239043134042  0.5066450386031454
  0.8293453890952557  0.8362134403545967  0.1436301509409208
  0.8411807318937331  0.5122219838669315  0.8171118175920151
  0.8291296828311270  0.5141552836475117  0.5100613999204293
  0.8387558177803238  0.4964982198713391  0.1384397290816796
  0.8625154903083140  0.1739196029768472  0.8264054863548337
  0.8126652382607914  0.1859177376086695  0.5244150566730340
  0.8443815893739381  0.1621280147851558  0.1776242213383093
  0.5039232591913415  0.8478844933595618  0.8349292035915268
  0.5185745241923712  0.8413528202332634  0.5045156274968446
  0.4918656110069161  0.8283382993850470  0.1654960374484263
  0.4809518780801769  0.5038559977873416  0.8220590537151350
  0.4922677930692008  0.4991398523841253  0.5007474479672339
  0.5058737652711437  0.4940333061729150  0.1652960192806472
  0.5236707466240483  0.1716556993387456  0.8292554972725505
  0.4891051943013833  0.1629263263409402  0.5408496634962484
  0.4992320932860543  0.1541547979100410  0.1736348497715239
  0.1650643051281888  0.8365717362325129  0.8312185538294321
  0.1621745577806219  0.8304730140800493  0.4775127092644485
  0.1768613284861639  0.8371434711916014  0.1510922192729134
  0.1747422209166913  0.5045816177895894  0.8373189763691131
  0.1596184810603788  0.4874756818988488  0.4717298542802901
  0.1763592689175718  0.4849310119428547  0.1697411654711176
  0.1795460172324149  0.1687984820180607  0.8271959234983859
  0.1625955149517636  0.1564856644161735  0.5135767075795922
  0.1609558457280825  0.1633459981003165  0.2092916458335510
  0.6717532588899485  0.8496642319802624  0.8494827368129758
  0.8470243959636125  0.6691448902460289  0.8153451152733137
  0.8180600810761418  0.8353398461790399  0.6745948346297473
  0.6857318183195144  0.8518833182695669  0.4924060365314739
  0.8441977046420179  0.6934105494273747  0.4909316388724960
  0.8184995097155661  0.8150787608359098  0.3247206912025611
  0.6581183801053129  0.8422433373101728  0.1649907188043346
  0.8336727126214654  0.6624477127639200  0.1764700227864998
  0.8519305798810591  0.8212635549698933  0.9937925240397435
  0.6724748303512029  0.4983541520335353  0.8367662695526936
  0.8387677204908446  0.3432070571903749  0.8401851814508035
  0.8574250977756673  0.5001510159826379  0.6555153969463621
  0.6748212837401600  0.5322304807374832  0.5197677769521156
  0.8050037792848737  0.3462065807269780  0.4842862017442829
  0.7994933101387512  0.5132010425353665  0.3398225588161568
  0.6626382522411690  0.4865150845773439  0.1443498094665558
  0.8424590991978105  0.3327596352152561  0.1653199664006232
  0.8364951934604269  0.5142576712492349  0.9731711577684413
  0.6855780547325848  0.1383968844711692  0.8633543337894957
  0.8976894573714677  0.9929928945175195  0.8453709576092546
  0.8002516828376357  0.1607326851317792  0.7000718172763196
  0.6714713184951679  0.1828582146945442  0.5309702518225041
  0.8179301229102536  0.0248218811017791  0.5171779252786349
  0.8242229321179412  0.1590875200136995  0.3236051967026485
  0.6877538216332600  0.1619860122098122  0.1527080931969058
  0.8571407282562908  0.9978041116823670  0.1628996777452989
  0.8784988872378134  0.1984534779990060  0.9875447890101723
  0.3377641126034170  0.8413003511419891  0.8289840830843526
  0.4958167441040187  0.6614784515646892  0.8501652398536437
  0.4856561207728727  0.8208398346695237  0.6704644726228668
  0.3324848151480181  0.8508505354621495  0.4873294900090248
  0.4753548511276158  0.6700685648736741  0.5147358048660037
  0.4709203627213106  0.8155915490381344  0.3378923561694365
  0.3397309140607176  0.8586358797924656  0.1539639506130597
  0.5213508921494179  0.6726689427537375  0.1641801098052828
  0.5057453860362428  0.8586630859879413  0.0036307617352925
  0.3320177552163141  0.5043978140284888  0.7805172984650959
  0.4913625393030756  0.3434883498185966  0.8118492001255093
  0.5135189895976778  0.4932723424077948  0.6633405789200532
  0.3422741670273642  0.4942957730855174  0.4734198367471667
  0.5034255315616124  0.3596515829390231  0.5018415661707013
  0.5032797840858497  0.5311710585303292  0.3161439178361495
  0.3326350160188735  0.5120293947718753  0.1752744683884426
  0.5077391710192644  0.3476977798310785  0.2173213600982287
  0.4397946127682814  0.5059567452234091  0.9945243863861355
  0.3392029438297678  0.1702012306228078  0.8494784453595227
  0.4881929365593396  0.0110942983194088  0.8305243909907031
  0.4964579925119640  0.1745262768447088  0.6828809834809474
  0.3266657662073787  0.1686714084376302  0.5259980766868650
  0.4872039994508809  0.0193368507099551  0.4879443014442831
  0.4994540343033128  0.1730242276507460  0.3235060276910151
  0.3232694451680121  0.1744511764092812  0.1646490624299013
  0.5132383042506051  0.9976802029223413  0.1842904477245235
  0.5085411465046478  0.1930039596375395  0.9976762286866011
  0.0060049185106656  0.8408238378670653  0.7964823150184854
  0.1891559377749331  0.6548950785699049  0.8416318061185666
  0.1516734521519305  0.8039540179525945  0.6451216181394059
  0.9758911817171734  0.8285852603856448  0.4970389034464560
  0.2000865531176148  0.6734192183706350  0.4712844742856058
  0.1750208617505624  0.8784972931687267  0.3129720074240473
  0.9814719841417033  0.7969187063267166  0.1525264655265892
  0.1738468860760001  0.6586720434334714  0.1473913771013754
  0.1401601201827158  0.8550993982639071  0.9890960052041617
  0.0256900577794896  0.5070687984634772  0.8160318287966148
  0.1744201594806661  0.3312701364983728  0.8237539349166136
  0.1611552464933601  0.5035815876788087  0.6410169238824235
  0.9971476736107528  0.5070648308933037  0.4961152288188109
  0.1608210191916496  0.3150516407933864  0.4892278913662419
  0.1413471321592769  0.4964316618574075  0.3369882764801995
  0.0027181467206349  0.5045227924889554  0.1106314345894656
  0.1560744894882778  0.3265121696666946  0.2170560389642260
  0.1870161219182794  0.4809910933043037  0.0110131993777443
  0.0287878419363407  0.2073396611108384  0.8215258608663039
  0.1730584934456495  0.9924332292712676  0.8929658484401720
  0.1805618568957748  0.1204807646781811  0.6765735590402737
  0.9746894760671442  0.1559776534923212  0.5152004559158166
  0.1536508000585190  0.9941460720778973  0.5101592936416499
  0.1578513232808154  0.1336340087835365  0.3475287136846417
  0.0035790507760771  0.1679625696378000  0.2064970189566240
  0.1651361869735267  0.0058872913589543  0.1702217475297396
