Cl O  Li
 1.0000000000000000
    11.7780000000000005    0.0000000000000000    0.0000000000000000
     0.0000000000000000   11.7780000000000005    0.0000000000000000
     0.0000000000000000    0.0000000000000000   11.7780000000000005
 Cl  O   Li 
  27  27  80
Direct
  0.6549877064729923  0.6718593245109198  0.6752508722109243
  0.7096122814578065  0.6615053428619286  0.3299465396727477
  0.6866846650747808  0.6583792214484618  0.9938168886450091
  0.6765767942327788  0.3220358890596757  0.6619852203648869
  0.6683213333223087  0.3476622831116096  0.3382754411168380
  0.6670671358079621  0.3117666636163816  0.9895697888563372
  0.6883410851368221  0.0205883459520485  0.6508591414630438
  0.6808542802193598  0.0316423304601515  0.3350560615615881
  0.6683453816558096  0.9824862905929513  0.9975066571080533
  0.3176600320697749  0.6801182266812342  0.6626461041966503
  0.3590951487500477  0.6636989233429749  0.3359116599724291
  0.3228674476798358  0.6611498809627079  0.0180250085700705
  0.3399024733750770  0.3452041709620544  0.6793649185976014
  0.3313074006033752  0.3576562280100572  0.3583425406182693
  0.3236015088900548  0.3426589342103212  0.9853967868566125
  0.3162916656994143  0.9639917494223903  0.6661402784718276
  0.3385584387360867  0.9736645387458599  0.3241454662541189
  0.2830373548336930  0.0044207144713834  0.9652815881578415
  0.9823627465208360  0.7011491825796701  0.6585710857451493
  0.0057615308395049  0.6581918549712872  0.3465731485525742
  0.9984394887306375  0.6801903716817367  0.0001004723980539
  0.9947272747451459  0.3695816508456380  0.6787936289780223
  0.0287350032751262  0.3470530181775122  0.3450653909158106
  0.9830036786365162  0.3351385871307285  0.0163011840959962
  0.0130514046016955  0.0124676622364180  0.6471530665522720
  0.0071476178003105  0.9777557108759244  0.3620718136689334
  0.9951678686052746  0.9931261681877904  0.0074088396108394
  0.8210020569922876  0.8475362468483526  0.8243087994583652
  0.8264021629109297  0.8029090985072401  0.5020992678035372
  0.8307434943889765  0.8199987997485971  0.1609276251833125
  0.8296006722373584  0.5018743269269335  0.8605357920339035
  0.8496526909235892  0.5041292832894396  0.5020397947363441
  0.8329647668904178  0.4975494730107297  0.1777566813555142
  0.8309973379092630  0.1510535030379070  0.8368602481877563
  0.8467501299437783  0.1705632500221287  0.4806932955528823
  0.8340565774255190  0.1752527560256085  0.1561160151834717
  0.4734231529104917  0.8322180252040693  0.8419361469436465
  0.5030800921911139  0.8150049244332335  0.4933450671280897
  0.5014226599938242  0.8319498498486664  0.1531077366769703
  0.5084197938781343  0.5006410198841128  0.8495872416546210
  0.5016060993862353  0.5009002074785105  0.5051862398255977
  0.4925795938435716  0.4986901899210311  0.1761675075593733
  0.4856529045725467  0.1635940004639107  0.8194550036613731
  0.5037636073670304  0.1612200271175510  0.4932065665407053
  0.5091904741416386  0.1826439141621016  0.1748539989194733
  0.1501249280971272  0.8265226187053684  0.8250746214726775
  0.1656874690690099  0.8005709851127294  0.4937562774367897
  0.1405717680993365  0.8413564729052007  0.1846671562198604
  0.1657435616044735  0.5131325906922113  0.8214754685295416
  0.1828976447689781  0.5078673011886495  0.4948997068695569
  0.1566274011215108  0.4824740018844110  0.1602853443974139
  0.1600699564990221  0.1621253011263811  0.8252395590327488
  0.1798032639168995  0.1697565377437830  0.4858453473648585
  0.1756569911439148  0.1633220296013263  0.1710138970591147
  0.6555335307697230  0.8379302736333027  0.8384329444220538
  0.8102158531068409  0.6710022888680260  0.8251036090261905
  0.8270019947445123  0.8339526630781033  0.6652944572874856
  0.6649139192806202  0.7972636510043978  0.5212796356138881
  0.8387035737485680  0.6500864329900327  0.5094276937973374
  0.8222294936506678  0.8283570936002997  0.3275255121586921
  0.6640644139239742  0.8420542794308238  0.1565140474912382
  0.8461163713366708  0.6580659453463922  0.1533466916877536
  0.8406880875727147  0.8131882631186732  0.9974021810285036
  0.6659697787717000  0.4881725662450867  0.8474211102815102
  0.8288337166315680  0.3311735675380185  0.8351802656171332
  0.8261859708218819  0.4991843548346860  0.6621063122259998
  0.6512482310990246  0.5209745336256151  0.5053189509993615
  0.8727435444794690  0.3324299512645015  0.4915921298487657
  0.8392151473884943  0.4883570582581562  0.3302081361490364
  0.6656178795885532  0.4986644412003132  0.1961420776564002
  0.8595959076033897  0.3218458100600355  0.1589988294045875
  0.8517926687218829  0.4687264926893387  0.0086041359144083
  0.6771243998875467  0.1430533937292435  0.8458638794738071
  0.8236579808547805  0.9895466519336413  0.8579338757082624
  0.8289726625584618  0.1527019677168963  0.6692577360075684
  0.6758963559480174  0.1757402206039193  0.4735528028319957
  0.7811848992346186  0.9588664635270567  0.4759329400820180
  0.8648124526733906  0.1634152877431094  0.3151553975803957
  0.6710086738629104  0.1812381797583719  0.1941522197581421
  0.8147988015113741  0.0099457311639471  0.1272301104136908
  0.8201173698144091  0.2037949295436969  0.9999505100115667
  0.2997875251846382  0.7971632471877615  0.8291116646096605
  0.5059707504604044  0.6612084228654724  0.8329623129193069
  0.4998638502551339  0.8229513197242668  0.6800730489027579
  0.3323056898415289  0.8047931275439306  0.5089793988531378
  0.5047168768293372  0.6663505557520147  0.4833971136553272
  0.5443609594595381  0.8559808555940343  0.3290941193665865
  0.3340011378387465  0.8439094828556413  0.1847044432824097
  0.4949556015817806  0.6776562684177352  0.2024084296486960
  0.4637645081771179  0.8344580019648998  0.9931029138913781
  0.3394383486355931  0.4981257423357308  0.8437048735328448
  0.4855994233460239  0.3204195900388790  0.8542018496497229
  0.5084733560754772  0.5106315235227160  0.6749212400032414
  0.3151429529206508  0.4710266307693314  0.5144333908524020
  0.5211948030411809  0.3398936187701865  0.5116026914752240
  0.4719989571598320  0.4754083666864926  0.3566909788054199
  0.3197061444451363  0.4994907079316570  0.1470503906134591
  0.4664986903370133  0.3353562974226488  0.1514827737784478
  0.5044505638027911  0.5193507043185706  0.0227267133336310
  0.3178485321384278  0.1481998585546487  0.8045379924295365
  0.4619092642668905  0.9932443261218520  0.8525025960239714
  0.5146590004030692  0.1665916717930093  0.6579695940097593
  0.3198985108704379  0.1641557355267455  0.5030972736438213
  0.5000066827813813  0.0035600503236244  0.5103044863202790
  0.4642683491037469  0.1696528141235321  0.3329696459606373
  0.1636664171623976  0.1678510818038850  0.0105804217115705
  0.4634595720694946  0.9947277245098182  0.1666883042841796
  0.4751758472773562  0.1670523755153537  0.0006225589009834
  0.9923971983370916  0.8367643747980222  0.8299500364785746
  0.1457273623846819  0.6613057093055440  0.8163377080672721
  0.1482912325463372  0.8319553558644174  0.6582427490705843
  0.9948009891878679  0.7984960268827900  0.4743361550288095
  0.1661572617658845  0.6560596503717009  0.5079981539725666
  0.1560843804394179  0.8071718882900151  0.3307357015258870
  0.9821913490075421  0.8657473129740627  0.1625251592166047
  0.1614932615706632  0.6703907972363823  0.1575460408331619
  0.1455362307643833  0.8116096560145249  0.0176141891986101
  0.9959245288978358  0.5184475962791719  0.8300450152502796
  0.1626073087171706  0.3370470288696092  0.8238514762677503
  0.1622667758128629  0.4963597282689980  0.6566865708835398
  0.0226164382111185  0.4850475784230980  0.5011197233101831
  0.1759280814488331  0.3321209868585899  0.4685554457713776
  0.1817019891573961  0.5077399745744070  0.3202501018092003
  0.0080993273091659  0.5104916869168039  0.1990522903786888
  0.1576353056445236  0.3282873829065257  0.1576885697188347
  0.1519693826456072  0.4974725102464450  0.9963698464072259
  0.0111500756432726  0.1158868840766564  0.8164078287972777
  0.1746732968960424  0.9900002333867600  0.8302648510262215
  0.1586327143250112  0.1542984086441203  0.6532610598636106
  0.0067344376233834  0.1606533427133517  0.4772064086514933
  0.1685578846333333  0.9789828616060970  0.4917810347715179
  0.1869520359041176  0.1390529089174312  0.3264447541405028
  0.0060024455971627  0.1505252392877352  0.1639457922511902
  0.1794698058379779  0.0012974398464487  0.1703735798155979
