Cl O  Li
 1.0000000000000000
    11.7780000000000005    0.0000000000000000    0.0000000000000000
     0.0000000000000000   11.7780000000000005    0.0000000000000000
     0.0000000000000000    0.0000000000000000   11.7780000000000005
 Cl  O   Li 
  27  27  80
Direct
  0.6601397323167877  0.6873326592206535  0.6457594352477845
  0.6724802925458322  0.6751559434456118  0.3301995916892125
  0.6842557574230171  0.6714912851092024  0.0152029469940781
  0.6681964098644815  0.3477320124475091  0.6338214619351241
  0.6516641927179163  0.3218676451559829  0.3106470617480429
  0.6667650481962635  0.3252327114588806  0.0168504223108622
  0.6695004044330470  0.9670185761156201  0.6448277445089724
  0.6695303636363982  0.9990085579931588  0.3347870339742485
  0.6549813647808619  0.9776457887355798  0.0102290727363908
  0.3501506406797297  0.6817002480198098  0.6803109796186122
  0.3207268568749175  0.6354202018473203  0.3583680848736097
  0.3347941198376488  0.6360286165878092  0.9767074417695515
  0.3615733156947495  0.3487892079571167  0.6629730218435398
  0.3218096391636034  0.3550815313398851  0.3340518999006662
  0.3272116074111025  0.3333963717023251  0.0023217419122903
  0.3048242890663514  0.9990111152161222  0.6696859481501128
  0.2940188546111859  0.0260979884859076  0.3366586542327942
  0.3495309709952792  0.0299274123193961  0.0040510159439463
  0.0094110627824127  0.6852477415798701  0.6654243324442261
  0.9959369774965909  0.6494593274501475  0.3443209431596156
  0.9996996114739176  0.6570041074746352  0.0031103146710858
  0.9967824801746220  0.3024490004654653  0.6995400918625239
  0.9998135810658045  0.3334322215328217  0.3222331358775566
  0.0202450818347453  0.3211034425580681  0.9942135936498568
  0.0213798360032649  0.9989564700340637  0.6541652994561594
  0.9808099962771456  0.9878245786292646  0.3424784926389274
  0.9851364544277181  0.0120824949759604  0.0031549792507187
  0.8427053686107271  0.8321216833884194  0.8268511597076653
  0.8426693365958859  0.8330666938270997  0.5076798556413372
  0.8410660333916781  0.8487349523256726  0.1616752064821216
  0.8341576030405333  0.4809899416724519  0.8375843277060986
  0.8664354867894654  0.4661683545518297  0.4988022959218208
  0.8260825451167294  0.5092076651153289  0.1612413850719734
  0.8184721787281484  0.1678194862800721  0.8278309066280692
  0.8418131511466007  0.1674912508190318  0.5106891766471443
  0.8208224377456395  0.1698006499365468  0.1632443096362877
  0.4978854642451163  0.8530601706105660  0.8418714087348341
  0.4871904335028410  0.8622262293612725  0.4786844884444472
  0.4911561818329299  0.8323507498378262  0.1611609810478444
  0.5443792733820575  0.5241241095514266  0.8254723076161318
  0.4879775913281886  0.5160385659064498  0.4758480806244684
  0.5112628963079816  0.5124674693523980  0.1665558845913098
  0.5121156404974223  0.1581764486722277  0.8294261127502903
  0.4913515644212716  0.1585942581027470  0.4965695255639584
  0.4811479050993657  0.1682987728055762  0.1737742914836145
  0.1635798435091304  0.8454289947212790  0.8379188991337935
  0.1703991452303052  0.8137147488494486  0.5030727374470733
  0.1751978808697870  0.8196253757873587  0.1692799555200742
  0.1372400560487488  0.4952923438960802  0.8263929458380320
  0.1715736877006067  0.4897264907091682  0.5378113648972062
  0.1641598880986079  0.4940417090978076  0.1695327565410549
  0.1904721151161769  0.1629854271204228  0.8267058170860021
  0.1697784026824915  0.1928334372932287  0.5254285783856006
  0.1475389471761721  0.1601167625500790  0.1628004984512383
  0.6708574753740361  0.8548766699834864  0.8328022720555096
  0.8300720583824496  0.6594926646524608  0.8139731556617467
  0.8452663946723346  0.8303096374105916  0.6732020250320644
  0.6730020280236521  0.8827920078995660  0.4834767869037494
  0.8025274858505459  0.6174973513549308  0.5033722485097654
  0.8443298051989206  0.8275751718528267  0.3464669532839892
  0.6802946649150706  0.8249457254484308  0.2023253515491834
  0.8359816326997017  0.6627796750850057  0.1522634721425829
  0.8063242075941601  0.8371475421776313  0.9861954202573483
  0.6815237209898483  0.4630344599396555  0.7936444596840265
  0.8551997329121109  0.3163842809918116  0.8311213178350483
  0.8611444485651858  0.5000041978458434  0.6641471392170368
  0.8586541910001428  0.6539851104558539  0.5259098284534864
  0.8175610140921729  0.3158309871369481  0.5202273772859646
  0.8646321046893635  0.4638897547099221  0.3420364729332675
  0.6673926125356512  0.5041019286123173  0.1802989403912893
  0.8076740721321809  0.3398777214640755  0.1793278371059065
  0.8176547783015803  0.5144054654405306  0.9867001910832369
  0.6645796457680240  0.1708293943243233  0.8322573384377976
  0.8175232007192946  0.0084092353876936  0.7928090027646276
  0.8402262850188262  0.1812807433842057  0.6805229612250269
  0.6614042940960774  0.1827363962983840  0.4852716265823553
  0.8589886814570179  0.9877753673483208  0.5176652581182887
  0.8584203472723638  0.1562154973566625  0.3369088540661865
  0.6776487409488317  0.1680580263154034  0.1865619523372655
  0.8696463846513343  0.9956199272839260  0.1685103987266955
  0.8069820145347686  0.1375200536651492  0.9829681485774994
  0.3483362870335356  0.8376821115304004  0.8427169060358964
  0.5154736218535813  0.6768838202561868  0.8256217797496083
  0.5049587916709223  0.8246284008053678  0.6305241682084561
  0.3229921775023669  0.8315208799049982  0.5311150780941160
  0.5339782881721330  0.6845169799305608  0.4631927868185966
  0.4742282602896692  0.8727900064045417  0.3310170933293056
  0.1667860045780369  0.6465620700590377  0.1790402287537350
  0.5148557335271681  0.6768665734715549  0.1697305986180501
  0.4739146603043202  0.8201118484731261  0.0121825848578806
  0.1685040737980552  0.6661677775861556  0.8486490712118916
  0.4341604978445087  0.4189741478230296  0.8549817990337744
  0.5512483114293364  0.3852979789857957  0.4761273489821934
  0.3329006374577388  0.4854639438388528  0.4856269265399364
  0.5136846120740060  0.5464427848836345  0.3150968131538933
  0.5278749911683467  0.5181357506264430  0.6421816990865035
  0.3559610662280532  0.5075903944446938  0.1333994472041042
  0.4960294915975102  0.3328927736881555  0.1762664923483341
  0.5304411183916059  0.5202336235984052  0.0057252669824332
  0.3559526452627868  0.1918269092741536  0.8314766177926294
  0.4822491082495715  0.9974611996159267  0.8059682184679483
  0.4952689326864892  0.1927948951829715  0.6520695317255140
  0.3272138543513538  0.1916715869989416  0.4925547898878494
  0.4904274039687073  0.0001200872950897  0.5126924757015004
  0.5099215337060469  0.1640063983094919  0.3295948611210277
  0.1824142634915949  0.1969355202412705  0.3127521006375633
  0.4983359049160425  0.0174957890168885  0.1604598142331967
  0.5220790998821896  0.1769328532697493  0.0003805803711685
  0.9902844096222765  0.8549925392267178  0.8236175090454136
  0.1601077742677772  0.8135887582537339  0.0140724562023798
  0.1635065547957973  0.8253356809169153  0.6673390899070565
  0.0252361370882734  0.8204121692440168  0.5174106858606234
  0.1707824610915607  0.6575972997009888  0.5190291710935566
  0.1419404222634434  0.9871223425038484  0.1793929174023755
  0.0016448754838638  0.7950963185289822  0.1978385357505384
  0.1742014337177854  0.8281658539837645  0.3455573675790012
  0.3244515955596692  0.8554393362107499  0.1058201280691246
  0.9999220688382988  0.4601663520436983  0.8470829336140032
  0.1703782952441892  0.3254136609985807  0.8428805480628498
  0.1864758407869977  0.5358254051576127  0.6820073182948485
  0.0061169844829119  0.4460930162694769  0.5500196592919961
  0.1943417915684923  0.3323831838333158  0.5468789226455431
  0.1694201169259278  0.5045797374203589  0.3666687679869760
  0.0130899903280703  0.4889284827939583  0.1616950443329893
  0.1979570374620772  0.1809058889736264  0.0064408402771720
  0.1964395835696345  0.5081683641569121  0.9855325020337360
  0.0354397862888269  0.1201496771980719  0.8242415511541371
  0.1961698292832440  0.9920215201579510  0.8065869165025603
  0.1772827175397504  0.1707603262149757  0.6853999146765012
  0.0067682112792368  0.1565058688380620  0.5267115205410003
  0.1441678789112519  0.9993328100694122  0.5083440187913051
  0.9899640485734684  0.1692806350886490  0.1384134437682052
  0.1761019605590241  0.3233318000062476  0.1388063344289101
  0.3316074929790356  0.1747347384227906  0.1914171448809003
