Cl O  Li
 1.0000000000000000
    11.7780000000000005    0.0000000000000000    0.0000000000000000
     0.0000000000000000   11.7780000000000005    0.0000000000000000
     0.0000000000000000    0.0000000000000000   11.7780000000000005
 Cl  O   Li 
  27  27  80
Direct
  0.6883776598432962  0.6654568379731006  0.6771945931905196
  0.6715963764548166  0.6676999725959060  0.3431251036079739
  0.6806190358835368  0.6786657697598203  0.0040521231089128
  0.6266780165600487  0.3311143957567796  0.6667326774386444
  0.6772877344125241  0.3147844639609498  0.3465581449141507
  0.6556237081589498  0.3455834764131062  0.9968313936825057
  0.6796860091261967  0.9976536985676874  0.6958248857360967
  0.6329000572711716  0.9966504270937738  0.3439836372110352
  0.6538974102793622  0.9823298893042488  0.0066229235503890
  0.3203643928638525  0.6399789241620998  0.6793806433853181
  0.3191613689076624  0.6774401549448872  0.3226216118728638
  0.3629137489963300  0.6710958887811734  0.0006432499319322
  0.3275815447084491  0.3270597009810656  0.6401595118326980
  0.3446938975366642  0.3617790573760700  0.3238975905377549
  0.3318301038696322  0.3138633399141305  0.0020226723774928
  0.3499163534765157  0.9922127782951556  0.6527401505426513
  0.3008976717490382  0.9838575429896568  0.3561638752167409
  0.3368055178380662  0.9773472107350698  0.0295843711866754
  0.9985643408455228  0.6590537060233427  0.6581949522501143
  0.0154035840799260  0.6668636249974886  0.3251288935527838
  0.9977934667739330  0.6649270458987038  0.0377785346561672
  0.0154914892914143  0.3398140018569310  0.6670194355972073
  0.9831567956561614  0.3423504330320036  0.2990087799267043
  0.9789064728493081  0.3546589288163803  0.9979610136368320
  0.0015620674466946  0.9763069710212102  0.6547637327873846
  0.9767138564270861  0.9802657001933518  0.3445395423748395
  0.9945645562257125  0.0104613889453186  0.9943503857684637
  0.8543047643041837  0.8370533572995115  0.8471876068856730
  0.8457237197270241  0.8172547772794678  0.4996446133624884
  0.8223099545415102  0.8520712581729037  0.1839500141169509
  0.8267597059473606  0.5023671129820304  0.8358185750388155
  0.8329945400480226  0.5056703985493687  0.5017844697045523
  0.8332726748142695  0.4996294490768808  0.1632780828338102
  0.8496983343618886  0.1801976416403320  0.8082369988422321
  0.8270461807080540  0.1549833283334118  0.5075352197586329
  0.8276211544999371  0.1771664989985704  0.1713290519387033
  0.5020381355769452  0.8238327657147306  0.8230789501240512
  0.5146194220534575  0.8245424749508745  0.5121818921984024
  0.5057343725331030  0.8292239648431872  0.1747854938118220
  0.4907885761748032  0.4923890383642769  0.8189125965877393
  0.5035525733063478  0.5174229081991212  0.4928797442749700
  0.5057710523145034  0.5276436928494292  0.1645711463416935
  0.5018108909709853  0.1476734244146562  0.8211315209354042
  0.4984864720196616  0.1666161327473418  0.4963537568160000
  0.4990120131260154  0.1784495221247900  0.1748877194719055
  0.1859834186100443  0.8490112899192693  0.8287256931600114
  0.1768563270663994  0.8368128739645031  0.5073120236936665
  0.1471900558987874  0.8473543030614887  0.1554447734140749
  0.1809616690899409  0.5062861411490556  0.8341406167386894
  0.1704759276743195  0.4942741605070357  0.4873772912400147
  0.1859992484053286  0.5053461509012069  0.1418803696067819
  0.1721287445348767  0.1630012714651512  0.8229570890401497
  0.1558584781119371  0.1679289430139204  0.4832928801734092
  0.1600143560484288  0.1765217890880758  0.1744373800145042
  0.6728687924036336  0.8349394521052154  0.8625833176045697
  0.8409541335826947  0.6664321719838217  0.8400588549336672
  0.8086005421171861  0.8288593532413212  0.6806852047496227
  0.6792629365923860  0.8009972131538950  0.4860562118284570
  0.8959395550262512  0.6618950530633335  0.4772849667954274
  0.8536758639462683  0.8101495878360436  0.3352749218936487
  0.6600863744105691  0.8578022108615267  0.1850923302009449
  0.8634432929761348  0.6634872227798096  0.1753290914110064
  0.8379821806102566  0.8372387804770094  0.9949594612434943
  0.6558047589121747  0.5028709134232497  0.7900688472510521
  0.8202937811267952  0.3343658195139923  0.8018492918336593
  0.8434861720907896  0.5230700560891807  0.6506978235531189
  0.6690087109934726  0.5360023105844112  0.5121801513257752
  0.8553249966345213  0.3518812653262157  0.4912765625269919
  0.8154172325294200  0.4960747491138522  0.3324320566507853
  0.6595386877849814  0.5118194440663806  0.1190983387578789
  0.8106811683045163  0.3274892106950559  0.1819001973265806
  0.8267171152961101  0.5321783016745014  0.9970541754046047
  0.6467818160855850  0.1524056830110263  0.8182219964650843
  0.8361741022026026  0.0318289531936367  0.8357692638095160
  0.8323357614575759  0.1743436740336244  0.6663137749020570
  0.6675311149871098  0.1864453501013531  0.5152439252079437
  0.8030614093008305  0.9851020606955220  0.4997795512337986
  0.8004381166787445  0.1550779326150751  0.3504524769811160
  0.6806311005356970  0.1862279636927122  0.1730198036283687
  0.8341739610102211  0.0082996945201027  0.1880318746027307
  0.8309050880413270  0.1909148583872512  0.9875007199898383
  0.3416321884104024  0.8486720221840220  0.8396027463053503
  0.4726772660991706  0.6765571681542256  0.8122070791111839
  0.5141643255603888  0.8356717522001023  0.6766268662870145
  0.3401577907514245  0.8391680722020060  0.4936227325180794
  0.5108278824423146  0.6774090621500577  0.5451892015781161
  0.5162871375448702  0.8324549434683833  0.3356249587479384
  0.2984455109547433  0.8459717263122413  0.1892512951499440
  0.5230624518681517  0.6685284660247963  0.1391723309003514
  0.4944677282879690  0.8632053127005040  0.0283443713995251
  0.3313176395506872  0.4757772269017813  0.8354576880946635
  0.5040532968564120  0.3263372793262026  0.8439486931201299
  0.4688100997422710  0.5110772655314696  0.6461999754802668
  0.3282981971923965  0.4881530499228784  0.4881740441075166
  0.5026448499302166  0.3337552792894820  0.5019492858083936
  0.5152122903965314  0.5252596285146434  0.3270119711823409
  0.3623145244438963  0.5286649373150154  0.1728843394467294
  0.4592326282558150  0.3426575553517633  0.1760838001802918
  0.4867489419715847  0.5237513040821408  0.9856747609478530
  0.3382711706484983  0.1937278049121733  0.8409875902375542
  0.5213826717245785  0.9948235855963687  0.7975893360295797
  0.4985474835324322  0.1964834038539238  0.6560308856329100
  0.3350766086495380  0.1530844613939804  0.4824623219886123
  0.5360804949470325  0.9841853672707522  0.5079669156847596
  0.4830929475129010  0.1339821595753349  0.3334762563438041
  0.3028238663401750  0.1589899871702390  0.1935324450661240
  0.5220537173942352  0.9968659546527726  0.1538210250778504
  0.5031035091393593  0.1697934682043752  0.0134676545370941
  0.0235026498518208  0.8488370407149131  0.8099695314749494
  0.1555220544767377  0.6704680815293262  0.8264569717581278
  0.2040975019362574  0.8296353775789370  0.6708156310304925
  0.0253919647648458  0.8362536894824941  0.5256040606392447
  0.1843686377921201  0.6714362496224888  0.4862871001213108
  0.1655231450500387  0.8328563158224692  0.3261028915449770
  0.9885380024793786  0.8390214340472248  0.1324329574997388
  0.1602268133584101  0.6521056404558727  0.1343562877481228
  0.1723718796642356  0.8320538949975765  0.9860640129823400
  0.9946994675284724  0.4783385768466683  0.8234382986226257
  0.1648070998472403  0.3242058844348151  0.8548639644924463
  0.1725327281979035  0.4920673008115312  0.6510980218303167
  0.0134600174524203  0.5074743879306195  0.4994196359394850
  0.1696167463046993  0.3280449741599255  0.4926165891103987
  0.1687091949915604  0.4770199670451166  0.3338094512675613
  0.0158784096193230  0.5149878727332283  0.1630115471375095
  0.1532808327895517  0.3629783971599560  0.1310058063141540
  0.1943439594019981  0.5151947531779913  0.9943069265786532
  0.0093171182527352  0.1849199003404483  0.8332827309021870
  0.1339309120823971  0.0160647885544372  0.8448622059098814
  0.1647289528847151  0.1489035229887396  0.6550806120909384
  0.9912370034506259  0.1505340323884231  0.4989304507312520
  0.1691855463248443  0.0036015736641982  0.4962807616218890
  0.1184348279109212  0.1964867439002433  0.3126310272634407
  0.0337276702881432  0.1663858820996944  0.1118189709595662
  0.1513814496611437  0.0347940666621340  0.1881794236792353
