Cl O  Li
 1.0000000000000000
    11.7780000000000005    0.0000000000000000    0.0000000000000000
     0.0000000000000000   11.7780000000000005    0.0000000000000000
     0.0000000000000000    0.0000000000000000   11.7780000000000005
 Cl  O   Li 
  27  27  80
Direct
  0.6314945326274202  0.6862874942270704  0.6665614307718676
  0.6576134519339065  0.6573256084641959  0.3183681808370278
  0.6677646421645380  0.6677049339798057  0.9992810845256089
  0.6314692292462114  0.3342214504633502  0.6604525062961004
  0.6778767234891732  0.3297616384331312  0.3170620607844408
  0.6558680044554204  0.3592193490114680  0.9814151394398042
  0.6813880230927524  0.9895030145541402  0.6529989803856039
  0.6868437559646438  0.9781956628619021  0.3213313079901002
  0.6625255872066136  0.0260596956373844  0.0190596236351506
  0.3225663206722737  0.6657538611042643  0.6879039623851558
  0.3243726986927107  0.6767493340736603  0.3074403994730416
  0.3370278912850575  0.6752452606092006  0.0153344130423395
  0.3365776530411811  0.3448067050165894  0.6735673499901335
  0.3362017864953535  0.3156560965153073  0.3305380748204952
  0.3513613255754001  0.3170842193507306  0.9984345232173667
  0.3636304290559111  0.0095651103119373  0.6841031921005482
  0.3396099090317159  0.9923015084203004  0.3294692802409416
  0.3439435482818753  0.9947304805634711  0.0113689759438394
  0.9842439032997793  0.6641146878268550  0.6796272466344705
  0.0162554107637121  0.6622617110995838  0.3231405402319375
  0.0076702075758509  0.6569192564046878  0.0075874242098444
  0.0165890092763995  0.3486293374225615  0.6696747992812052
  0.0109102865620986  0.3470567626444935  0.3501423653582655
  0.0248099867389582  0.3478377262021212  0.0034969762309208
  0.0110134623641465  0.9904910837566235  0.6830649842481996
  0.9988518485365826  0.0033157577637222  0.3378827557063841
  0.9968802442405410  0.0047381044698000  0.0253775489790260
  0.8294618714809268  0.8210159749970474  0.8492732193956690
  0.8353920933572453  0.8247671911398958  0.5052891768035565
  0.8300151450930854  0.8284848853633190  0.1599370309962478
  0.8177000501868896  0.5009095794174728  0.8169570364489394
  0.8099317906995657  0.4844013701189984  0.4942573074506298
  0.8402047559777442  0.5115627887312864  0.1629304108718933
  0.8235698678315864  0.1557036466681408  0.8390179411760972
  0.8237096234666786  0.1785372154438898  0.4836186323989827
  0.8452394405863216  0.1797386604690924  0.1520493901563810
  0.4936066514370105  0.8353237617801970  0.8326393028993494
  0.4781294435879164  0.8300307802562402  0.5079565580370606
  0.5021230408145054  0.8315392666303826  0.1607295632597640
  0.5128434963942193  0.5135111085989521  0.8559771174558268
  0.4772277525378655  0.4985717899062416  0.4824102238832714
  0.5057794806126983  0.5038048530234956  0.1610341046346404
  0.4988695523013861  0.1690301683280139  0.8330044812969546
  0.5073519744199464  0.1487139519779061  0.4787415170058686
  0.4991756220004874  0.1781897696558359  0.1596630561058716
  0.1675533742349296  0.8288229385362681  0.8284174843514277
  0.1488506128055706  0.8272159916451661  0.5005175259033205
  0.1621920027322420  0.8344556736203911  0.1790738567482146
  0.1702138324633352  0.5043846445791611  0.8480624627261816
  0.1687150221021671  0.5061027644059418  0.5002342494900121
  0.1665287391162615  0.4856128555258646  0.1666630442115820
  0.1713261691012729  0.1551480451449110  0.8354373305507108
  0.1660047769408951  0.1444204337689912  0.5014665848829942
  0.1729239460470248  0.1744640390785410  0.1499562640987336
  0.6586721858890916  0.8297866532343380  0.8487643987636180
  0.8337068476833309  0.6530142766749101  0.8213087321919295
  0.8288363718974459  0.8014308340581759  0.6633094402189159
  0.6539866474557854  0.8375747505725294  0.5102917564820560
  0.7971681984221206  0.6545785114585314  0.5070629235835866
  0.8193281304619769  0.7923026696511678  0.3095633733991628
  0.6665094325149431  0.8614286731348462  0.1481075585822106
  0.7930279174898061  0.6738790804509764  0.1455279395960909
  0.8161208762870023  0.8189641744215902  0.0029667453010061
  0.6546604461333178  0.4792884676984284  0.8097586495918473
  0.8288690031378527  0.3423832483779378  0.8483734716452951
  0.8157182893706182  0.4391324065742016  0.6494656162336105
  0.6473350970306723  0.4795966831242563  0.5014440345096611
  0.8589518489309810  0.3215262582859885  0.5052341571314560
  0.8431658588603199  0.4805886971238700  0.3363757065642945
  0.6553189413258949  0.4930846808416513  0.1531725667628286
  0.8242290512761322  0.3435132366546068  0.1733953933935711
  0.8345552599339087  0.5076133560214008  0.0050730911101659
  0.6557609205461448  0.1468350443455723  0.8560929866990581
  0.8331346268993230  0.9773673086016084  0.8582174990707570
  0.8051351603014006  0.1488848307718852  0.6765261452043428
  0.6654072982003086  0.1991155242165581  0.4960361553923117
  0.8246841072837908  0.0033467518753648  0.4917497626155451
  0.8178794815237173  0.1683193255003921  0.3167999784832328
  0.6590692263043149  0.1745243623393427  0.1309091742578856
  0.8311903555726509  0.0116607129380204  0.1351717413709060
  0.8519605854311113  0.1672375351042495  0.9932508213035900
  0.3257120370241486  0.8048357380044486  0.8302964122264667
  0.4978200895050759  0.6712994715862093  0.8638261858213789
  0.4846982823205343  0.8556545629992335  0.6818705836843257
  0.3231895935582082  0.8191093551016139  0.4703875550930290
  0.4901348655935268  0.6806958113486207  0.4726793531785751
  0.5039835073426143  0.8485473492853127  0.3224964173598870
  0.3374493646451758  0.8026251536512303  0.1761259925946873
  0.5008217182829955  0.6610045581503121  0.1971930412360793
  0.4881290159583448  0.8379370140206194  0.9922472379655030
  0.3405400208395405  0.5081375611092267  0.8336300618512552
  0.4830738862177508  0.3514729921309185  0.8245707226411350
  0.4947368826261392  0.4800897954172529  0.6455003942138507
  0.3112063575572416  0.5154450156606813  0.4962351816675475
  0.4784549462837861  0.3210225185728842  0.5041977306371446
  0.4901974560372849  0.4810028223820854  0.3302673691269714
  0.3364086871828214  0.4886947668716835  0.1699072514444740
  0.5165798139062121  0.3338231752431241  0.1530691973899145
  0.5096615456004535  0.4873154694406406  0.0076527366648359
  0.2090497048550228  0.1263741837471226  0.9945825620519074
  0.4858952334652342  0.9817892579173556  0.8252077200810372
  0.3716029374363520  0.1715173692446068  0.7674030566313139
  0.3433764286595194  0.1292240023591421  0.4764506095993410
  0.4965796165446970  0.9985765271369523  0.5274602828165547
  0.5222908072877377  0.1770373524620634  0.3196045040428885
  0.3356497476881979  0.1711385877492638  0.1797843756925570
  0.4901722741123060  0.0148596245882105  0.1565498697808787
  0.4767779596334982  0.1763376228794685  0.9878615224590623
  0.9974852540947959  0.8574272571586052  0.8507492364710443
  0.1457124166185910  0.6607703905392535  0.8361562704603195
  0.1758185314010789  0.8439468302128679  0.6639995950020614
  0.9812191649438016  0.8384867249167036  0.4920995160719654
  0.1570812764024561  0.6750474893816729  0.5436282122445336
  0.1256368759091886  0.8097042704906569  0.3286772236809921
  0.9858510121325209  0.8518430235955832  0.1680051760363054
  0.1780713420368585  0.6811911908245736  0.1462108980976207
  0.1598372801983059  0.8483378777743140  0.9932184873779123
  0.9791877133475125  0.4997318993279014  0.8499222005169117
  0.1612539659054228  0.3110337962923181  0.8770892870865904
  0.1758054950990801  0.4949097631214778  0.6898049143231988
  0.0134137588179777  0.4948987915753856  0.5057819652132737
  0.2097479769628601  0.3067212296980292  0.5231050243574905
  0.1741606943496898  0.4972753661093336  0.3353419116216287
  0.0079041670665989  0.5035423456254834  0.1662142533211108
  0.1772788603801046  0.3345668314954975  0.1688246108547229
  0.1949318958579889  0.4901368571735339  0.9984982485177719
  0.0139693907052650  0.1637343528253620  0.8388948655298977
  0.1679838353560533  0.9889096357153503  0.8417576698371537
  0.1608737775420847  0.1314898492969205  0.6604076079764836
  0.9943823820605682  0.1819780097060690  0.4727585021549963
  0.1767770437239722  0.9748426941055605  0.4968523007711720
  0.1576824847399765  0.1269219715862351  0.3394371930208016
  0.0081981487079123  0.1706829447031612  0.1722235229603253
  0.1801331425085693  0.9995750997334389  0.2100485151513699
