Cl O  Li
 1.0000000000000000
    11.7780000000000005    0.0000000000000000    0.0000000000000000
     0.0000000000000000   11.7780000000000005    0.0000000000000000
     0.0000000000000000    0.0000000000000000   11.7780000000000005
 Cl  O   Li 
  27  27  80
Direct
  0.6778484293350662  0.6767996165837907  0.6522701743772270
  0.6819806941562139  0.6684877594972825  0.3146966928075950
  0.6661628825533445  0.6559350152347737  0.9982974554398005
  0.6463356793484776  0.3470770859512728  0.6734112505906833
  0.6452807105364164  0.2837103547004665  0.3041144341746910
  0.6767136232946152  0.3251789123293448  0.9987288923225619
  0.6582103334800010  0.9887566586945687  0.6698167939550996
  0.6736067729362769  0.9922069398269476  0.3464988527470972
  0.6412680801016238  0.9964930308608932  0.0123593132840131
  0.3362138158095408  0.6835584128598189  0.6677015527422758
  0.3444883655907947  0.6570131417013172  0.3270891350894700
  0.3258725465792691  0.6738217527415024  0.0102300122474207
  0.3393089861271131  0.3406858567120356  0.6785698610390689
  0.3149501700175091  0.3303662066906686  0.3499333920134415
  0.3706400375939178  0.3223353790772176  0.0343027065784993
  0.3589597539154876  0.9789421451329489  0.6610389902856605
  0.3311402449647218  0.9842885838452161  0.3395094515760845
  0.3268157959026173  0.0149015506566968  0.0002386544615555
  0.0158624759088508  0.6504315500645701  0.6649812165925778
  0.9868084415574594  0.6733165757963453  0.2990566526397462
  0.9980982127767261  0.6661256787400910  0.0117144692655981
  0.9933562487522011  0.3431351430422251  0.6531457523378704
  0.0065756953589819  0.3230754523708119  0.3503499868816628
  0.0158711878630010  0.3407885681970382  0.0132862052365790
  0.9955730302197698  0.0285852080344577  0.6657743662585957
  0.9631167301158888  0.9995721534578106  0.3098003670874673
  0.0164632325810167  0.0128151780714940  0.9709550110613765
  0.8315234341876151  0.8354562701579031  0.8243064057409312
  0.8376495244771943  0.8373331737624454  0.4885522372802102
  0.8459717053432356  0.8289109129630470  0.1491539669499739
  0.8235507233801246  0.5038274030278213  0.8362304925579843
  0.8332936182515712  0.4992058720276208  0.4950130204537143
  0.8289493718240089  0.4982926021503287  0.1645852542228504
  0.8390859468216540  0.1732744963948513  0.8313875468508546
  0.8392681311663572  0.1704984523210841  0.5119349906417144
  0.8488217162609525  0.1789849229806378  0.1545286581525298
  0.4896458474743705  0.8176996932441126  0.8471847108946574
  0.5002517698293811  0.8351871231526616  0.4970499628837256
  0.4987964407984822  0.8401292581141300  0.1565105505463834
  0.4969445976626893  0.5035268393444711  0.8572925412512493
  0.4822546286097625  0.4988779806925651  0.5123198854339575
  0.5090578728003640  0.5163241559683912  0.1806088126790044
  0.5017528068880955  0.1612143887217724  0.8406903653163180
  0.4893172274019360  0.1716865776464184  0.5144973932072597
  0.5090030555553133  0.1429122506664157  0.1645122387860343
  0.1641669064189664  0.8321100700560349  0.8149807535042649
  0.1576898987174314  0.8447115587521044  0.4850509780582947
  0.1642143451980566  0.8378062052921146  0.1576780485553562
  0.1686755843389758  0.5004367904312554  0.8206273345985854
  0.1636026106539533  0.5042956572791184  0.5012524698911088
  0.1565818029261843  0.5031325114517133  0.1807069695553894
  0.1803360200451858  0.1608192409994637  0.8221460232960309
  0.1658824655435689  0.1750428383726553  0.5300682033241215
  0.1661897700476732  0.1698988431572560  0.1832585422737774
  0.6554333177563956  0.8514871969586651  0.8326474528080019
  0.8055972254324147  0.6576364955580717  0.8282601299042697
  0.8192259099493305  0.8318096683143245  0.6674134585651852
  0.6592836421827624  0.8279577244715601  0.4950218867584898
  0.8561521665252495  0.6744237303018116  0.4885168125465180
  0.8164691774161020  0.8514815290012744  0.3114720906344636
  0.6652624060655916  0.8646886794299570  0.1356201498698860
  0.8615806122308454  0.6560140022695551  0.1503505233619269
  0.8315375231102723  0.8540560771898000  0.0029519950170799
  0.6617148720201214  0.4895369440001237  0.8272618406661161
  0.7865443056925362  0.3272094985499965  0.8023395891064601
  0.8442573911449888  0.5020677046850383  0.6560909444543421
  0.6850373426062341  0.4986911000403095  0.5005761611181606
  0.8508268776441654  0.3362901533284471  0.5173333961731392
  0.8189352247060041  0.5413392810584361  0.3424347653562785
  0.6702723136032894  0.5214189614107206  0.1538894745004912
  0.8281943998995590  0.3508332008287232  0.1626855674538679
  0.8069387499759892  0.4958786595830115  0.9831454311476805
  0.6680073573445295  0.1509882296332956  0.8693405134227005
  0.8543277320119818  0.0158848236032720  0.8205836103558566
  0.8041944869490201  0.1606427954616187  0.6628503075261095
  0.6583650687167689  0.1682152675065014  0.4990300637981896
  0.8136517167679723  0.9875927221365010  0.4926065272018250
  0.8493002538063726  0.1738282760746341  0.3489732400314458
  0.6896303313924309  0.1582476178818060  0.1544359870491908
  0.8546668378055893  0.0234939526565119  0.1342655789029604
  0.8720145120790460  0.2015281708817497  0.9983753700856569
  0.3102106847754658  0.8196475272868593  0.8253734392051527
  0.4875365981022169  0.6527868292728929  0.8163175817402868
  0.5124052874645304  0.8647354805638408  0.6759581067588140
  0.3109184102265228  0.8183955564700589  0.4831815642545904
  0.4734469871932021  0.6747983013145212  0.5074180334553736
  0.4965124159116434  0.8545603634559384  0.3304010642918291
  0.3397244069184464  0.8194441285873505  0.1594167046063261
  0.5413595214849273  0.6759970743026681  0.2045670863854259
  0.4787962029515571  0.8469228718427017  0.9918494109372737
  0.3276487022411903  0.5322971886329476  0.8506902615700259
  0.4889215634906506  0.3396019610745765  0.8413150551916004
  0.4908078192248875  0.5024634900525534  0.6837667301998419
  0.3253300623288579  0.4901116343941374  0.5131030352037215
  0.4857457664791947  0.3335699588776840  0.5110335425041231
  0.5044633455685895  0.4657945587421753  0.3504813620368988
  0.3203265919713397  0.4890218076441229  0.1693188893231582
  0.5397114819027423  0.3198550201949036  0.1342786354476642
  0.4909440121439056  0.5422449396786605  0.0207007044770681
  0.3356398743956109  0.1573619792967939  0.8377277239881650
  0.4767798675952021  0.9892825742909644  0.8477189563641468
  0.4643710489650089  0.1612518782113714  0.6713657657391759
  0.3250357536413425  0.1560113455359843  0.4991501840094639
  0.5106443745594493  0.9932921993166539  0.4670863871082629
  0.4821781111849872  0.1832428747569256  0.3184702164113172
  0.3222362482725184  0.1746350693237996  0.1401647181058019
  0.5021639767113858  0.9875813267587736  0.1436389735592915
  0.4884698272866066  0.1476222119232647  0.0099595633832160
  0.0043057593948001  0.8336671389220982  0.7981957454580715
  0.1613924007907767  0.6582062467320735  0.8126424781681143
  0.1667495921748887  0.8820671226149636  0.6630039496568092
  0.9923000596845810  0.8048577212130352  0.4538863216263188
  0.1483624752440804  0.6574847562416388  0.4724500966433743
  0.1943504293052482  0.8379093621166265  0.3129724799266191
  0.0002517131763757  0.8298058024642292  0.1741323818945609
  0.1502297331997057  0.6654511108397699  0.1730783442469282
  0.1678142673639816  0.8267042961800021  0.9834628519435922
  0.9994809874458583  0.5168668628885571  0.8512830489422801
  0.1933274439670349  0.3459933320127485  0.8464752445709731
  0.2017889756140691  0.4827116706809835  0.6540835158881726
  0.9953210800249823  0.4998091451210480  0.4922913482854884
  0.1636322054886151  0.3294031397591576  0.5083691976763640
  0.1682430280978880  0.5042080468520211  0.3337989035340682
  0.9885034113207722  0.4797248595630998  0.1721751754794146
  0.1614084228917581  0.3232065036427683  0.1784972961238945
  0.1515332318219995  0.5007285687806501  0.9924147194701198
  0.0108580060677749  0.1542401392154275  0.8236845498443445
  0.1890208692134162  0.0182176612428006  0.8446000413536483
  0.2257510751917295  0.1408231731497618  0.6665199860533507
  0.9974197653936273  0.2024149430582400  0.5384869823782653
  0.0993984589413663  0.0185554854201499  0.5072496546354579
  0.1658545204893619  0.1651656635178099  0.3551731757087447
  0.0093042190502545  0.2104192729708891  0.1633925236821361
  0.1243764487891491  0.9997036440597233  0.1585238899824032
