Cl O  Li
 1.0000000000000000
    11.7780000000000005    0.0000000000000000    0.0000000000000000
     0.0000000000000000   11.7780000000000005    0.0000000000000000
     0.0000000000000000    0.0000000000000000   11.7780000000000005
 Cl  O   Li 
  27  27  80
Direct
  0.6712162264873094  0.6925547240826908  0.6525527472745360
  0.6863511706808212  0.6656381207442740  0.3164082387339361
  0.6909705559542951  0.6592093615300277  0.0023780456138417
  0.6384567687872119  0.3330740608874206  0.6839737978076241
  0.6769843852676618  0.3418996980686966  0.3232504147117237
  0.6559058994979634  0.3321428964589376  0.0163536227236398
  0.6872820112260246  0.0017610463761997  0.6505898526592941
  0.6690231723165924  0.0135457817796752  0.3408985312123009
  0.6571801372902274  0.9938477814347675  0.9965350109655700
  0.3372986381628363  0.6560383417969442  0.6370937173745024
  0.3416557184653476  0.6272277500109930  0.3192393834506235
  0.3528078294857784  0.6587499330980963  0.0012625802128175
  0.3064360433743784  0.3451168711691051  0.6545618357425128
  0.3271505855514747  0.3374028014029780  0.3436523892814243
  0.3435315289638216  0.3478390696476600  0.9851923809829581
  0.3147229209629572  0.0129174646646967  0.6482661925561298
  0.3286140521497705  0.9844211560553874  0.3617811080833285
  0.3508328297329661  0.0043874253782087  0.0264692832115469
  0.0093969730016665  0.6411315328884107  0.6542996927131899
  0.9980123447832169  0.6448033571423784  0.3084326939477501
  0.0131932671181384  0.6688202739650895  0.0004111437337469
  0.9918597289591163  0.3468083920815593  0.6697491680564792
  0.0071751773528190  0.3383912324438126  0.3725438709164236
  0.9729156194516964  0.3398683831106660  0.9806832855571589
  0.9945915085629660  0.9890457829242789  0.6708873343859550
  0.9990002544162523  0.9874734561193467  0.3452776760632263
  0.9753613000500637  0.9863122194320539  0.0153659090336624
  0.8179995214630164  0.8215398636286049  0.8502769307559789
  0.8423655844609987  0.8463559624434138  0.5038595935706007
  0.8247646334629947  0.8387583894443720  0.1605676895467204
  0.8162244791498685  0.5047546886529691  0.8214245985123860
  0.8346438831950990  0.5055130613518536  0.4973171108398499
  0.8397735465753816  0.4913351112783627  0.1724493678968675
  0.8190986193719059  0.1640758141997567  0.8093034287197741
  0.8224953452653718  0.1680016540370031  0.4950145841206712
  0.8171669794931328  0.1714244424131141  0.1715487901955897
  0.5048901787969320  0.8310406557486459  0.8464637719359316
  0.5013923203494507  0.8410463009305646  0.4995859132125535
  0.5029045313813070  0.8549885044620095  0.1677967542231902
  0.5100632830220738  0.5031575392310713  0.8245007609299942
  0.5122255682812410  0.5055818460633316  0.4774167909846420
  0.4889996149124112  0.4972817702311143  0.1689382707203378
  0.5073029068019511  0.1644881783426399  0.8488979167228058
  0.4984065213668153  0.1818561560491785  0.4921374479782988
  0.4910064361974317  0.1760688071845174  0.1846620144732253
  0.1894919125094067  0.8220320042717630  0.8631937198246146
  0.1559372201446798  0.8330546429512247  0.4909507396423122
  0.1737905774309177  0.8214181644863433  0.1626213018442721
  0.1779914447791985  0.5074805713038281  0.8347496424547963
  0.1765231806598256  0.4902602236446140  0.4912795216563864
  0.1677606197472268  0.5085678069876067  0.1720966994909321
  0.1884398991322707  0.1633348502271439  0.8453597348070303
  0.1524226108588384  0.1660832022805162  0.5166466269003978
  0.1679919331368850  0.1700708734600844  0.1528303710339387
  0.6537406588038710  0.7933041241783072  0.8368293779631080
  0.8501543295657490  0.6533228234110282  0.8857070085223755
  0.8150010100616618  0.8122732391196222  0.6548087562577005
  0.6544141740835338  0.8511816613659117  0.5050920099344028
  0.8361637054840229  0.6860345488128134  0.5065106996693114
  0.8458572081553499  0.8515186619182028  0.3396300828336575
  0.6574504988577669  0.8316522283511095  0.1823252370972425
  0.8312912054276412  0.6551206590099693  0.1619007425182661
  0.8168539463035229  0.8636510056839565  0.9941502371872335
  0.6565863377827249  0.5175998995168414  0.7982747981996421
  0.8278458970422544  0.3359220880200505  0.8343323188491965
  0.8300900842857183  0.4912121166029831  0.6631747423372905
  0.6790528658320119  0.4945954823111708  0.4926380500721332
  0.8083290145045320  0.3239282448416811  0.4669428105806065
  0.8591475965868569  0.5101178718777514  0.3371592380226781
  0.6827092651447948  0.5093347625933972  0.1846112052837582
  0.8154871588641496  0.3255216696058651  0.1498551185005911
  0.8368997302366237  0.5062728105546758  0.9977232874786069
  0.6683854056539015  0.1446274430969950  0.8485762196554699
  0.8264956276501343  0.9976375944064351  0.7773542864995063
  0.8028145777882361  0.1931989938358085  0.6603175655020155
  0.6482251694669171  0.1879881572086081  0.4819393351575537
  0.8553638301744215  0.0093642765786953  0.5009611621026030
  0.8076865920196986  0.1452939442793866  0.3222833194819243
  0.6749092246106727  0.1757561990917117  0.1677733840203057
  0.8444533360804773  0.0247475987621524  0.1555224888529127
  0.9494802626480848  0.1736700668886305  0.8667851706614232
  0.3377255163251808  0.8284515328125444  0.8491384000578138
  0.4998567087506526  0.6772251665236261  0.8548550209113202
  0.5126130541397197  0.8729097760234117  0.6540751201442859
  0.3373395486695747  0.8193043402628670  0.4934729401957930
  0.5177406527640958  0.6605240442468159  0.4970413647127891
  0.4929858083745168  0.8507934062846444  0.3112817129729233
  0.3352787400904071  0.8262398148678476  0.1744179507122053
  0.5006166603805244  0.6678340493790962  0.1887833279909858
  0.4734752415607439  0.8266313897527298  0.0092004112581886
  0.3360994400778850  0.5056175946803034  0.8491951606025415
  0.4947021063578507  0.3120215667508998  0.8104485990251682
  0.4434163631302967  0.4729785810747597  0.6220412419610262
  0.3328864167319948  0.5317363115597400  0.4837293975577874
  0.4941338126586066  0.3414364235228213  0.4925888602990632
  0.5090621598052248  0.4869639420531944  0.3188604804990509
  0.3379981045902667  0.4959201649242126  0.1392033869042402
  0.4755413739713177  0.3327218378209944  0.1627368472042239
  0.5245391652272693  0.5032008991051107  0.0034812480474553
  0.3370203616976546  0.1439568832522575  0.8431302842527826
  0.4992683342880813  0.9947895309001945  0.8746191073621000
  0.5044675516026305  0.1646681562325016  0.6348073443338873
  0.3368581366600490  0.1757397012871636  0.5103949508692032
  0.5133366498714709  0.0243805099592661  0.4668369817190389
  0.4767361793892911  0.2000044090613760  0.3350832271720803
  0.3326510548013433  0.1782191087623441  0.1778576316256112
  0.5013139405958185  0.0012549317826229  0.1715497820881332
  0.5213507367679141  0.1788879277344544  0.0048629423412832
  0.0074093038458830  0.8302617974323349  0.8083155037465637
  0.1579772293444937  0.6760531139060356  0.8620747030940377
  0.1927620810114188  0.8401137599981440  0.6542571425473492
  0.9971750944866749  0.7954416728520048  0.5040287820987152
  0.1768730555724757  0.6691485701542447  0.4531407270529431
  0.1561011455695027  0.8484608798767046  0.3216905118669651
  0.9956232495036622  0.8251820930479110  0.1726212891901524
  0.1615957849203407  0.6696709938840334  0.1633340778502183
  0.1459934569118454  0.8531592116995500  0.0101837335463572
  0.9956010755181243  0.5081922643250587  0.8325499081914404
  0.1877785294755882  0.3366422627346621  0.8318457859418675
  0.1758058196812044  0.4894920939619354  0.6844562219523983
  0.0079311108057549  0.4948299738055087  0.5185937322057654
  0.1572559716451662  0.3089644324759606  0.5000609690127195
  0.1602155462035169  0.5222777457222602  0.3242776915033900
  0.9763450449046984  0.4770105230500907  0.1436947977969127
  0.1947694083640634  0.3254410631546865  0.1808341189639618
  0.1641531166882917  0.4981779147800043  0.0042608107466408
  0.1798512028126335  0.9815635440019556  0.7977583663105234
  0.2172819075963305  0.1645594225427713  0.0127373505350344
  0.1505178026854992  0.1884650753376311  0.6845960585583103
  0.9867701923133392  0.1628935086521004  0.5162774404472092
  0.1636662593911300  0.0097810061874215  0.4919179765710462
  0.1536257967566681  0.1752780866430957  0.3284834980716828
  0.9872859587235321  0.1651498921253068  0.1334288111864133
  0.1910870781462178  0.9942763372112862  0.1578958043113610
