Cl O  Li
 1.0000000000000000
    11.7780000000000005    0.0000000000000000    0.0000000000000000
     0.0000000000000000   11.7780000000000005    0.0000000000000000
     0.0000000000000000    0.0000000000000000   11.7780000000000005
 Cl  O   Li 
  27  27  80
Direct
  0.6705238547443192  0.6518436153567065  0.6683846167184900
  0.6719747303801253  0.6558086754348266  0.3226597419846237
  0.6585671366868593  0.6826173041849493  0.0199126690900452
  0.6935069361389546  0.3442291144685098  0.6675323988393786
  0.6433585900180876  0.3222687754996281  0.3496967894175943
  0.6644701118822921  0.3407705268686646  0.9925692780488717
  0.6698177082242497  0.9835152555652963  0.6653763483333412
  0.6750607712377575  0.9888354496105738  0.3563205668514926
  0.6832296338563788  0.0086091513462129  0.9847929739840772
  0.3629921060340275  0.6899796569522745  0.6886361070194660
  0.3208126246067074  0.6508644352320418  0.3333458861794185
  0.3281839448923329  0.6891563456558558  0.9952068781515701
  0.3418630944727314  0.3639569664773986  0.6833193200744681
  0.3371531838226450  0.3201400728880012  0.3290516189904198
  0.3304083550130438  0.3235626284730050  0.9740479690639144
  0.3206520189854991  0.9939647903727460  0.6493781337438060
  0.3467434486986403  0.9836961937184749  0.3138111495759150
  0.3346898692979133  0.9803170827738374  0.9846384639474022
  0.0075851581661260  0.6998946957867604  0.6679564025376178
  0.0098074541893370  0.6610793494979094  0.3296772400301306
  0.9960275920910514  0.6674921169752317  0.9926070389172341
  0.9862628755836503  0.3374883139571970  0.6581433869361655
  0.9882559988832533  0.3200530697420529  0.3450657443460592
  0.9819444677038094  0.3345310774312700  0.9909503917573464
  0.9960417834924024  0.0131135669116577  0.6673314697498760
  0.9950636101260175  0.9838903807220545  0.3435660433058726
  0.9829578073931059  0.0094695371567787  0.0087413420493400
  0.8221022011872040  0.8251205221078396  0.8336317687195353
  0.8278586596840855  0.8247751005902824  0.4996504158744161
  0.8318952979669688  0.8388007040661913  0.1571493740908923
  0.8380168538906356  0.5166161519092924  0.8446797512656158
  0.8289688505952967  0.4939476421498445  0.5029929318039803
  0.8214195362048964  0.4793564170117470  0.1773734152839328
  0.8337437808137372  0.1775999727566611  0.8359912584104912
  0.8330322902195566  0.1611368439621482  0.5092556603520869
  0.8300761265569927  0.1560308847893820  0.1947291461539664
  0.5032216633350221  0.8354039781727254  0.8359333642742854
  0.4963918151645595  0.8140314873560860  0.5115417499948324
  0.5113264780351275  0.8151849166851067  0.1746892933334208
  0.5122488166442448  0.5161986663620526  0.8341861759231720
  0.4995994741936335  0.5040774965694408  0.5118271721348674
  0.5043236357080167  0.5100212810580870  0.1683865652002994
  0.4940361311021373  0.1729228148032112  0.8101733076414546
  0.4987957578356229  0.1465076030241225  0.5033401346795746
  0.5026981869845749  0.1678103071153882  0.1497356757024184
  0.1512704058298174  0.8404591483987294  0.8320816633439809
  0.1820504609887722  0.8371020982069988  0.4995043040299642
  0.1685653377354825  0.8461564172262872  0.1542396370721704
  0.1693662201147977  0.5070950765988744  0.8216427433049482
  0.1729649884465395  0.5066484010710721  0.5074219546799444
  0.1729708183455700  0.4874572236562690  0.1507718997696801
  0.1520754075995933  0.1861760376283988  0.8202440533625469
  0.1670381673446556  0.1616943482996449  0.5017450500135834
  0.1759877708511497  0.1705203093642004  0.1743615639400047
  0.6641780096496179  0.8113711910693202  0.8205365199639104
  0.7981203447294960  0.6667448777640790  0.8570849666943248
  0.8506322695677221  0.8432732892432445  0.6759053484094772
  0.6767880812525934  0.7965154747481235  0.5038001703926551
  0.8663427948342661  0.6571078117542000  0.4811513770278452
  0.8389880179041334  0.8652025354172970  0.3346572086071821
  0.6570514843951587  0.8017473233030796  0.2041394736255098
  0.8492109887665779  0.6754778640847211  0.1813860457187253
  0.8203482922580415  0.8100647268907487  0.0032917525221138
  0.6616023683550244  0.4757106653617768  0.8184863388048508
  0.8344857974070083  0.3402655523505573  0.8534688098790163
  0.8061188852285246  0.5009435614718566  0.7066431266791083
  0.6691054079218702  0.5111922000841994  0.4966721876634382
  0.8440090184441529  0.3266946809990273  0.5084320656577987
  0.8236837232408674  0.4860154167522879  0.3549077475010244
  0.6592745382546368  0.5070193688822978  0.1758361437833273
  0.8681873101108611  0.2937851236415993  0.1705300449865522
  0.7824291714889005  0.4727259999706194  0.0120163681679597
  0.6439476527326279  0.1857433093243187  0.8122488326671329
  0.8179341472636749  0.9953682253317085  0.8232973010381325
  0.8313009721491371  0.1845007108799182  0.6676402924568529
  0.6806781623515156  0.1424970171025317  0.5194048667976316
  0.8222556408908540  0.9800065786571793  0.4961048656140326
  0.8210822117693259  0.1815527859982760  0.3451908847481653
  0.6685492193601964  0.1747879776388724  0.1779135513805678
  0.8153082635753530  0.0012037447176150  0.1830185389034956
  0.8424680627712434  0.1641529462741193  0.0114304493985346
  0.3276869864853925  0.8166784234575737  0.8264466610769015
  0.5046763850847720  0.6809009657162055  0.8203365220388362
  0.5052178369572299  0.8154467763165602  0.6857439912754177
  0.3332160384346745  0.8413643211940346  0.4972649750356924
  0.4740604274136322  0.6506665020628742  0.5043222702391645
  0.4973791733420309  0.7817973278498827  0.3189784846301413
  0.3429338930800769  0.8503450377380630  0.1423511268090970
  0.4972339116911875  0.6547977547487737  0.1571533821464758
  0.5194009286777824  0.8557271681346943  0.9802856763635128
  0.3464655568448531  0.5131687787679990  0.8159543002967559
  0.4922604815078404  0.3549782337184570  0.8367395907277121
  0.5391488209645886  0.5147873854571620  0.6609266374129009
  0.3247803769645881  0.4939040393633456  0.5298867418566042
  0.4940330137255725  0.3359479250800267  0.4943085684606692
  0.5125934689390133  0.5069067384718614  0.3616775558085549
  0.3260861326484857  0.4981336715953846  0.1942449204084503
  0.4915478978075912  0.3449772038732709  0.2004626494234152
  0.5174242690231629  0.5462539415910158  0.0075349622322172
  0.3491431404016606  0.1612881784244817  0.8482172044440125
  0.5154246541411106  0.9902143624302223  0.8486798717087387
  0.4681438086350518  0.1605097654476799  0.6528211344608265
  0.3367846046506054  0.1623470135931916  0.4774709698669714
  0.4930657363114284  0.9851346631064745  0.4514903892062296
  0.5052165009387021  0.1509154014239287  0.3204400079287601
  0.3392300043814414  0.1598797112555814  0.1078068394479999
  0.5247583224889441  0.9902690025516044  0.1441495696891869
  0.4975858918451541  0.1963774095246434  0.9886410767735742
  0.9853411202174699  0.8483576899352209  0.8424406651838038
  0.1281719916236323  0.6668704635056943  0.8449548091407076
  0.1727636949883475  0.8481932382000688  0.6683529976133316
  0.0069813796376593  0.8372239592909002  0.5116227208147005
  0.1650710723681330  0.6760726757274719  0.5112967727793216
  0.1952930968792619  0.8197435738436797  0.2887180293436323
  0.9971061566223820  0.8574854494881297  0.1792873427958595
  0.1545586409460126  0.6764426718888592  0.1048847037724857
  0.1589335145861899  0.8748133668815388  0.0073702505048232
  0.9955953878832546  0.4825067487003544  0.8613719667522403
  0.1915195327901299  0.3361576799888950  0.8110789662616789
  0.1982271352652968  0.5303653614915819  0.6466526154616364
  0.0321371858339640  0.4820129481553889  0.5423155197938950
  0.1647779782429155  0.3133192934493638  0.5084324300264882
  0.1712774148615539  0.4738310897201790  0.3590799714217769
  0.9968799981640607  0.4875481943723908  0.1400623145225334
  0.1556992060360268  0.3352923043515548  0.1612038968036141
  0.2053597333312461  0.5111270995450253  0.9997427417080580
  0.9822032023676834  0.2056098845903467  0.8272328877378207
  0.1643441973181772  0.0077326472818172  0.7803863292241241
  0.1737712756280808  0.1515726618115029  0.6516829276459409
  0.9925681777032251  0.1683725280031422  0.5252304338892705
  0.1706652349779413  0.9892180310411898  0.4672907920828271
  0.1489932229772574  0.1846664986335981  0.3387999793922076
  0.1100150646123566  0.1654464146361019  0.0104862802972794
  0.1518565232307849  0.0004043552377911  0.1697369358059443
