Cl O  Li
 1.0000000000000000
    11.7780000000000005    0.0000000000000000    0.0000000000000000
     0.0000000000000000   11.7780000000000005    0.0000000000000000
     0.0000000000000000    0.0000000000000000   11.7780000000000005
 Cl  O   Li 
  27  27  80
Direct
  0.6339703349495494  0.6616734945898552  0.6808564219836472
  0.6840133785191781  0.6527582429536901  0.3266081336536622
  0.6574489172763675  0.6506559165866354  0.0042737576462880
  0.6662481782130715  0.3191425745738002  0.6653194981549001
  0.6583246976640605  0.3226843394483548  0.3264088239805569
  0.6734729615574407  0.3276779111231442  0.9987546483443598
  0.6566370228655501  0.0012886388618831  0.7024533639129609
  0.6576099277516750  0.0203585868284383  0.3433660772033147
  0.6738998397197853  0.9761731165973396  0.9961014638891751
  0.3354172380273794  0.6553467586086430  0.6777288430954226
  0.3457743775383453  0.6910584528865407  0.3422479106663464
  0.3357626190595268  0.6511582595530970  0.9890011579983243
  0.3364979150747488  0.3433623840283956  0.6680150977191284
  0.3247248793221598  0.3510475269691248  0.3225613740182952
  0.3244962784549672  0.3341847059650381  0.0066741413967844
  0.3334001132055308  0.0218979154939360  0.6639352615038454
  0.3093951395787503  0.9950309592872046  0.3336547204662066
  0.3475179626879746  0.9858890734891513  0.0021617486241213
  0.9974165256295277  0.6536891239843037  0.6750963197998716
  0.9961551147537829  0.6844564970885966  0.2805577207263187
  0.0061202659858761  0.6612705028193718  0.9835136769740302
  0.9900551049755079  0.3532258039652159  0.6315757591684864
  0.0075003446588137  0.3425078989663278  0.3309262062637020
  0.0116396925289462  0.3206073771906237  0.0071590098481832
  0.0044447304845006  0.0228444871512370  0.6685834319037824
  0.0099043221220263  0.9906935188366029  0.3333979417537001
  0.0176717870831801  0.9895044617142557  0.0213968871845599
  0.8366333335888458  0.8169340700370610  0.8691981926836960
  0.8183576527488808  0.8436963834782190  0.4864862522881897
  0.8341923062822828  0.8278314468581865  0.1944582293704991
  0.8409954745675989  0.4792803261422347  0.8365859804195285
  0.8381052211524078  0.4711345402072760  0.4670167376800900
  0.8403331332610778  0.4973792881678375  0.1454000642469834
  0.8487319125227145  0.1419131177362168  0.8354608099066418
  0.8249764504773573  0.1534950623539172  0.4914980221547444
  0.8364669385540168  0.1610585162737371  0.1620295071055052
  0.4964604660316938  0.8273283751543463  0.8404250499019338
  0.4855202151614480  0.8477349650607794  0.5147084291261594
  0.5063607276915540  0.8462055072442912  0.1778088879329946
  0.5061875311078562  0.4963313638171048  0.8372947180058340
  0.4992764692050660  0.5280185654350993  0.5016564997591639
  0.4865359131258731  0.4961601510184938  0.1579566748661408
  0.4968450369406572  0.1862940742995202  0.8603808752541613
  0.4981698005245190  0.1900522741755823  0.5074631196789537
  0.4947911716092935  0.1728533028128132  0.1680749909439058
  0.1623649645732655  0.8415576202422235  0.8305170555287763
  0.1572949463231682  0.8231397546425705  0.5092740320653034
  0.1763486454071880  0.8247690494799559  0.1723512522468363
  0.1734968126460242  0.4983583468362724  0.8299761704520575
  0.1654118054327290  0.5009648380132359  0.4696148078917872
  0.1760813202453935  0.5012628916011702  0.1562012274914008
  0.1760476161416234  0.1829214777103749  0.8327984083785595
  0.1722698618125632  0.1875448912821374  0.4879467229661503
  0.1562246031766845  0.1755912703585375  0.1750878837740327
  0.6621010147610682  0.8349057054484211  0.8362829876115822
  0.8392097441062283  0.6640736721177949  0.8505506938388968
  0.8207512311550014  0.7156827318290822  0.5556403931317720
  0.6674763840942404  0.8247293737782206  0.5274219004661064
  0.8465244050606511  0.5010135014759765  0.6594971698960560
  0.8728337677354672  0.8308995121938080  0.3392112215234239
  0.6493852357527551  0.8242512410868995  0.1668383539761180
  0.8290960838506057  0.6501568124529685  0.1826482911667551
  0.7889613585374142  0.8338244211199026  0.0065846230947440
  0.6749696261918823  0.5033285381868249  0.8464511412289759
  0.8386146895510176  0.3043349346769001  0.8092115275801678
  0.8409821953531406  0.4866094808734139  0.6075024461697373
  0.6526541492070592  0.4846712823582317  0.4571639654060824
  0.8173183113050542  0.3161368365267722  0.4404791992348855
  0.8392368693308839  0.5445169772643697  0.3210170985417712
  0.6424435263946445  0.5043035887996762  0.1527606154135663
  0.8387575220772651  0.3370463361954059  0.1478136120815536
  0.8435831400289429  0.4996900739106426  0.0036845462743831
  0.6764873432394896  0.1445586166056517  0.8692658033182857
  0.8224257077098731  0.9797818683781373  0.8657995234905532
  0.8382007667198520  0.1424183756521936  0.6553078206469015
  0.6500993174131716  0.1723200087504571  0.5010492186101535
  0.8067021461413303  0.9907816037020978  0.5145043826600920
  0.8389748477577910  0.1318883431981044  0.3367676233933301
  0.6747543247818530  0.1670214807253396  0.1730461438229442
  0.8090638220444226  0.9875571710616207  0.1735538106208120
  0.8600153582129713  0.1188610289603488  0.9929339081889789
  0.3109918436611390  0.8042962254428707  0.8424316687599047
  0.3487420795427403  0.4705521980707849  0.8192126383961738
  0.4193896461879696  0.8277135533444586  0.6755767601595588
  0.5055332059125024  0.6818527994049186  0.5098412326584792
  0.5306543622911642  0.4895880734530811  0.6530871959120194
  0.5043637443611476  0.8449217958661025  0.3514461148325405
  0.3204573729891274  0.8462337660604250  0.1779345141600199
  0.4826513380427020  0.6902168421848317  0.1989500653599758
  0.5056065249898928  0.8274759039881460  0.0027916237947978
  0.1680569298121221  0.3387606503936529  0.8368676779018496
  0.5558217934933809  0.3452434576301609  0.8502940163399152
  0.4905656284036578  0.6689509089671387  0.8268530449589256
  0.3242932846095579  0.5338918243396403  0.4924739229612045
  0.4715638012511161  0.3280317940913776  0.5226830832333269
  0.4839450493171442  0.5074513699074579  0.3287055208007051
  0.3341491337747205  0.5220504087296727  0.1619566940957389
  0.4808228145030310  0.3259835359892896  0.1746053381730289
  0.4987985794262045  0.5111782948043457  0.0111190016590471
  0.3332029897445620  0.1590361283485971  0.8542130849923502
  0.5251975363132046  0.9991027708514294  0.8395104844915240
  0.4826470870746590  0.1762498667646395  0.6944681835992104
  0.3139311046650552  0.1748820874327229  0.5262345038781508
  0.5005283185656364  0.0101217826074870  0.4946524428697552
  0.4930729303262829  0.2099960551183544  0.3471730012702323
  0.3278455149625805  0.1721010838962388  0.1813779399738448
  0.4724939130589408  0.0102409994880521  0.1514095363132476
  0.5170979442309808  0.1849416591806736  0.0148646118377887
  0.9817894290900437  0.8374455981260429  0.8377036206461678
  0.1168249410876080  0.6624048635203137  0.8273512584135739
  0.1236490909366224  0.8408132554951764  0.6786305341454736
  0.0171160678992277  0.8648835320881804  0.4901359310229236
  0.1448374237448244  0.6685054480016345  0.5071275361160105
  0.3183356945961242  0.8561410316962038  0.4986512272943502
  0.9775909782146683  0.8123306360151008  0.1370788449094280
  0.2121617353942654  0.6686641103231660  0.1597113833821495
  0.2107857375241322  0.8398952893103320  0.0067106959264476
  0.9889663030124323  0.4896143079987184  0.8316408495377252
  0.1468368260784743  0.1383974254656596  0.6670742977630811
  0.1580080158483365  0.4763165917080134  0.6748588728706083
  0.0062199556145779  0.4800846902668043  0.4790449934569033
  0.1544382249487550  0.3401612836357310  0.4512009908331274
  0.1737670932427439  0.5065510148759347  0.3056369544629939
  0.0021819762524904  0.5262899194017356  0.1648986473794158
  0.1306620444948642  0.3238688413295000  0.1624634702145882
  0.1790624229204766  0.4831413792022343  0.9908390627665784
  0.0273295335465211  0.1684005352439228  0.8236146979891218
  0.1693608838952776  0.1816675231084879  0.9993949795781162
  0.1635853466489647  0.0189264685891222  0.8576247904874915
  0.9973339179971876  0.1686092172894278  0.5024677868888322
  0.1698476197362096  0.8028157248512577  0.3439157880993992
  0.1455721630856598  0.1753563335246903  0.3384719376953234
  0.9940030188499361  0.1663475605915776  0.1554150716799492
  0.1490808210162409  0.9851363788690103  0.1815205295876325
