Cl O  Li
 1.0000000000000000
    11.7780000000000005    0.0000000000000000    0.0000000000000000
     0.0000000000000000   11.7780000000000005    0.0000000000000000
     0.0000000000000000    0.0000000000000000   11.7780000000000005
 Cl  O   Li 
  27  27  80
Direct
  0.6844856051026043  0.6641176011011927  0.6793676758432077
  0.6497015935079354  0.6519278085387424  0.3546618542972566
  0.6692775847441617  0.6714377680713663  0.9866649434234265
  0.6700944588604009  0.3496029693708876  0.6697380186633467
  0.6123673249707012  0.3456883541135454  0.3658823451750659
  0.6651483158433491  0.3322276840478559  0.9880066577423597
  0.6507672099828092  0.9783873317690428  0.6655142973011580
  0.6520313264225897  0.9828218986158298  0.3344869421491710
  0.6483305551005192  0.9813998043109795  0.0146213107721359
  0.3275674659291093  0.6814105795858286  0.6666327472359957
  0.3212040299237918  0.6539265732271862  0.3466465933239252
  0.3116721652516263  0.6565850881559148  0.0216388239996716
  0.3483205502164629  0.2868061714784277  0.6518092168156966
  0.3107346041283738  0.3132369296549312  0.3059798694814954
  0.3405941121576009  0.3148094841902940  0.9763515990046567
  0.3346493965045262  0.0108618177292907  0.6530346696889902
  0.3603211544582912  0.0092197598664234  0.3328434369328987
  0.3484205491789999  0.9752633990980505  0.9965526125393359
  0.0128205352424481  0.6804340714982194  0.6657077770752329
  0.0124777566630582  0.6669368026219494  0.3546973195163587
  0.9996598035503009  0.6862400031660403  0.0010709544532132
  0.9919508131216593  0.3494534567520012  0.6543885017971844
  0.9977722741071124  0.3457770981321208  0.3213674223902907
  0.0084859009368226  0.2916867686167962  0.9661826483307547
  0.0041686114664311  0.0323361344125904  0.6330772249203652
  0.9739638723275905  0.0104306759472125  0.3259303912450216
  0.9853907742724413  0.9817785086310097  0.0040270861702582
  0.8268707675701268  0.8483878755804051  0.8413193559610321
  0.8468964707399006  0.8467429533747850  0.4934142609313977
  0.8528625626894203  0.8245007549819424  0.1712546477870182
  0.8383839274763493  0.5114778891514770  0.8638938585986130
  0.8297445029380650  0.5040533507944932  0.4917749257123485
  0.8298155143470891  0.4789736109901938  0.1923643882931856
  0.8480310338678921  0.1667858174677329  0.8101872093132334
  0.8297079850983043  0.1918109222113264  0.4684684873485700
  0.8407525668699504  0.1664393736935749  0.1518871564119521
  0.4875252193649771  0.8414915908522407  0.8412037296302604
  0.5042857337381604  0.8430798334839529  0.5001609520698559
  0.5061302895001653  0.8173541894495657  0.1773728839070702
  0.5068529540674879  0.5293979866359912  0.8384491023383482
  0.4893777102673291  0.5201646411339744  0.5226883701756836
  0.4939736544884512  0.4928853290079585  0.1515647508499424
  0.5127243101577621  0.1678594298110688  0.8319108705756405
  0.5133073810316322  0.1652601855224835  0.5028503978517741
  0.4911366393873234  0.1653679678050804  0.1582797925191846
  0.1810873054602834  0.8355114909508834  0.8328232497739142
  0.1841913420826313  0.8648784737255582  0.5008736572263346
  0.1617843781927097  0.8412876253569930  0.1860656074875327
  0.1681752734273150  0.4961326232533579  0.8424260651269889
  0.1877497262179638  0.5013858076193493  0.5181529111570028
  0.1407703856810362  0.5040039181089637  0.1778062194922991
  0.1758220564421317  0.1429806292176244  0.8359184403341913
  0.1781620119227944  0.1816102588097556  0.5005466970557074
  0.1814999530010361  0.1453709283055401  0.1594590717824483
  0.6461033717292276  0.8326221282147108  0.8155068302369264
  0.8059169768630252  0.6810391664350938  0.8557219595742469
  0.8354545651551620  0.8258124822638054  0.6584223061013725
  0.6572934580641766  0.8581944135162680  0.4971700924109785
  0.8300422326427199  0.6931208224676099  0.4908203202315138
  0.8175340223311385  0.8446688048530441  0.3311034144993436
  0.6844278729080383  0.8279041204826377  0.1663499618297390
  0.8680413525818906  0.6399702807730839  0.1872147858485105
  0.8557018044880947  0.8433718952312170  0.0000093431872924
  0.6539286751591484  0.4961822988513470  0.8487893999187818
  0.8289411914341538  0.2120873717675265  0.9714320141736094
  0.8504375676051912  0.3866137189973389  0.7780021181238700
  0.6917113600968119  0.5037125041282585  0.5316392894580004
  0.8392796266857300  0.3565840710328639  0.5057752662924588
  0.8512327820271156  0.4965079634888563  0.3503249762143023
  0.6752145271985291  0.5141451084433416  0.1661723928217683
  0.8454738134348184  0.3167950303923942  0.1571155940711213
  0.8297399685721524  0.4828096440668540  0.0093045845552531
  0.5081491349519361  0.1673154071150801  0.6582990280281232
  0.8589940780239307  0.0056384578261455  0.8292007772346560
  0.8721754797318952  0.2118471111022729  0.6731450683363457
  0.6680936699014605  0.1995049921849460  0.4839718487724814
  0.8003684514315652  0.0354656211757580  0.4897386715343060
  0.8053155256130453  0.1594993647226817  0.3080269535066953
  0.6586811764604855  0.1607709810846524  0.1368248734079195
  0.8147863585297350  0.9784548766148415  0.1700188711341915
  0.6777582255046849  0.1425862608394569  0.7995472693354381
  0.1642834109703558  0.8345362783963924  0.6582180572082553
  0.4918591420130062  0.6855329659669523  0.8284221618308044
  0.4701794479057874  0.8466385010171550  0.6681980751256856
  0.3480955323080495  0.8047082477733890  0.4782793977087058
  0.5599635771478189  0.6614083579538166  0.5236663762234601
  0.5029399177411332  0.8452296087514506  0.3288017784591834
  0.3575681465827764  0.8780734785312604  0.1902238436991531
  0.4908633628702686  0.6461370993850568  0.1232284861267786
  0.5189074848753483  0.8135534191649580  0.0195715529369434
  0.3292319628304325  0.4972457695994943  0.8152195457680345
  0.5281739474426912  0.3266543613028111  0.8132137366182624
  0.5131433341505794  0.5230420606742163  0.6830320912671577
  0.3394629902894538  0.4907272542314244  0.5313488066417238
  0.4859279889722594  0.3346280640028451  0.5136645366700754
  0.4968188071569759  0.5149159911338955  0.3369065324311740
  0.3076742512633449  0.4863298504606188  0.1470126017210164
  0.4583869386710199  0.3257883378989121  0.1599227613037753
  0.5159412808311210  0.4779183587802630  0.0087790927904927
  0.3496608197123293  0.1289686996889205  0.8309654552828608
  0.3291971858632992  0.8411233358063930  0.8275973930596283
  0.5125463362956921  0.0016506689858547  0.8513320456042792
  0.3515867106628916  0.1517492022135984  0.5322098098547909
  0.4978633307332740  0.0115994138218646  0.4875776413228468
  0.5148343287527044  0.1767564832554684  0.3436460171666639
  0.1701873173302169  0.1737597734548558  0.9944281757614886
  0.5063532021672621  0.0150585138151792  0.1663621074527192
  0.4908020274742185  0.1803574175566418  0.9887373105871300
  0.9999758899091460  0.8330398566744103  0.8296312181130746
  0.1871936186271098  0.6865269637516529  0.8226724239119720
  0.1775612084393732  0.0170052355314095  0.4916673154927439
  0.9966331304345376  0.8353747312361264  0.4686132631744940
  0.1664065164740592  0.6681244421223645  0.5130053127401194
  0.1588416556862441  0.8469109678260113  0.3377173337359229
  0.0035219943135779  0.8117910082997094  0.2148560577820416
  0.1860341164865989  0.6852397706282098  0.1909637348084026
  0.1613926312448355  0.8261432480629666  0.0109712486911768
  0.9886978578772989  0.5245402637542356  0.8522842624459277
  0.1683777207196902  0.3350095377779487  0.8297675729737326
  0.1698545070178542  0.4950348613629965  0.6679781583789238
  0.0055598501956509  0.5083775974295480  0.5398078281933421
  0.1888005655182118  0.3372634617625015  0.4616053196857317
  0.1832134372483795  0.5167647168931235  0.3599883577406385
  0.0007205494405842  0.5004114452584667  0.1991262209749591
  0.1640310046821220  0.3101410710853900  0.1427396501003480
  0.1577813731641290  0.5444161709072532  0.0041892587033479
  0.0226109081132259  0.1501496236671045  0.8301418201031628
  0.1663577214337362  0.9789326689756853  0.8164572657205379
  0.1800472960071929  0.1768952065126074  0.6782208456360063
  0.1811262321819350  0.1773305461256282  0.3213189006264847
  0.9776287836978120  0.1642679792171725  0.4907244912661999
  0.3257988203107308  0.1322046175341285  0.1598038354120941
  0.0093155804617069  0.1330986264776444  0.1628956758046993
  0.1651996666466304  0.9937941411835224  0.1817506724967628
