Cl O  Li
 1.0000000000000000
    11.7780000000000005    0.0000000000000000    0.0000000000000000
     0.0000000000000000   11.7780000000000005    0.0000000000000000
     0.0000000000000000    0.0000000000000000   11.7780000000000005
 Cl  O   Li 
  27  27  80
Direct
  0.6774238253316797  0.6719011458515225  0.6579587872841522
  0.6506937787622390  0.6728718645255111  0.3330761861957242
  0.6815637418953048  0.6513775531103801  0.0214605097134080
  0.6556520674022707  0.3181244315764494  0.6596301464624593
  0.6701968557751741  0.3360659863282285  0.3338599230039323
  0.6592295606510923  0.3071674399891958  0.0272799508564562
  0.6600272446830225  0.9903722891555187  0.6748410007995974
  0.6538093739691230  0.9856718634778783  0.3438852440950788
  0.6482522251453467  0.0000393248063935  0.0143249005450948
  0.3183430162876231  0.6646968481245801  0.6674543163009019
  0.3295483858648219  0.6442077894381113  0.3629571514922163
  0.3474371678847521  0.6628719277863931  0.0049265213301581
  0.3438127520458171  0.3349122938440432  0.6457996826624323
  0.3396208522158367  0.3646114998926365  0.3071459288995304
  0.3283592281615343  0.3343647894028002  0.0143537084446010
  0.3317978969396920  0.0109271100645798  0.6584580938448689
  0.3327268751560385  0.9941590407343522  0.3468591403671937
  0.3184055257605612  0.0237034527158161  0.0154319260033168
  0.9954071624617187  0.6543297492027704  0.6679910718658074
  0.9780820271750736  0.6577183780142496  0.3445844271246396
  0.9924024783005179  0.6890658665574872  0.9803599834383662
  0.9920142225866659  0.3195459755327584  0.6499087493436876
  0.0000262418805721  0.3412046577122216  0.3099039367231720
  0.9928790927889664  0.3520258409918514  0.9955943528402461
  0.0393650047406322  0.9939378063140141  0.6543540878398553
  0.0088051136689904  0.0092758278540929  0.3156915689857026
  0.0025742648508687  0.0358334407367793  0.9952220135857589
  0.8393464774105813  0.8492472006697158  0.8475152822238622
  0.8358818979700657  0.8340794228087476  0.5154150029805081
  0.8504515443846685  0.8278870983885163  0.1575492623020970
  0.8347751888041088  0.4999787594605528  0.8185685380043030
  0.8377334577079891  0.4827395860857193  0.5121698139764254
  0.8517938786364417  0.5110051632831383  0.1661100540529370
  0.8319739223199527  0.1782091827554778  0.8138170083528042
  0.8429921076043216  0.1554402388153361  0.4874955760380253
  0.8209835100267986  0.1695026536502277  0.1560632858158779
  0.4966218549506968  0.8532688593509237  0.8413462773997529
  0.5060560485713963  0.8322745832338880  0.5121008268378977
  0.4959690277155103  0.8391114353802694  0.1666571333973757
  0.5134201826967585  0.4824346499780962  0.8229578042077120
  0.4855359780609181  0.4819788652330587  0.5177031978645702
  0.5145434908807884  0.4975314974008600  0.1648782652129889
  0.4943745503306681  0.1632155630066933  0.8273767057311925
  0.5049418091191917  0.1508644057215986  0.4854443827437170
  0.4905391650205668  0.1489107822652315  0.1826375850133025
  0.1698230591673855  0.8413050968321353  0.8386878434418442
  0.1678990103029751  0.8139463523318289  0.5067266315816135
  0.1803221405255801  0.8040342284468581  0.1953694367293594
  0.1761720823667665  0.4978244903125525  0.8242904219611007
  0.1556284999544691  0.5087283852846778  0.4969550325545236
  0.1562983816685902  0.5052787044750181  0.1595341708589906
  0.1556134596246786  0.1782296886156094  0.8460945682184569
  0.1656620193411272  0.1924696218517093  0.4822549016637034
  0.1761912724510752  0.1795192906209433  0.1509676807867023
  0.6626475818701835  0.8729332707224461  0.8300665563672103
  0.8442541188027857  0.6553351638730722  0.8205351572772589
  0.8382512661010455  0.8317440624221124  0.6664481728932212
  0.6839530288479720  0.8330677733853158  0.5028431091191006
  0.8266700097353140  0.6609135675370638  0.4978374120640361
  0.8539340183763749  0.8371205248613529  0.3401507484265331
  0.6666331680511401  0.8187811199861521  0.1554790206224149
  0.8165854989748439  0.6597546726777019  0.1590037613820923
  0.8243098722777992  0.8107813649248253  0.9884457408969142
  0.5336424830171719  0.3388170711467714  0.8684088306409821
  0.8599184097311851  0.3540189782083141  0.8154597443462879
  0.8585023110625122  0.4745283352428972  0.6603178721210088
  0.6205830385216661  0.5078913089488816  0.5301728660658944
  0.7749702222203646  0.3239791886486507  0.5026078079165640
  0.8000110960311275  0.4949062209936871  0.3539814956244297
  0.6679733970615965  0.5150277126433648  0.1739100439802966
  0.8369951657724322  0.3199298177043430  0.1511837210554629
  0.8302459240531480  0.4923534944411160  0.9979768445698898
  0.6610506753607451  0.1393203352048915  0.8016514665509047
  0.8560665468592404  0.0087203085668520  0.8237893745277570
  0.8170280045054230  0.1542773359003907  0.6629616908459315
  0.6704618327831924  0.1532307779322432  0.5249206938351514
  0.8235666411222301  0.0044263329993218  0.5036799425424372
  0.8136140318273253  0.1506135277575898  0.3410062456238493
  0.6677868807780304  0.1280801076897393  0.2065960409040688
  0.8438639204218412  0.9854507448205092  0.1437632109967676
  0.8184760866479439  0.1507447409711860  0.9877750418835800
  0.3427410222740432  0.8475691613987699  0.8549446788300382
  0.3562595864759385  0.4666613318407444  0.8294124740843157
  0.5344550656799579  0.7944534371567872  0.7045608139218473
  0.3255457958116931  0.8071023747532993  0.5110814042157585
  0.5183956371506023  0.6780273171119217  0.5060954640407418
  0.4946006613451497  0.8524780983240922  0.3595162155311024
  0.3417109519890915  0.8459474778184518  0.1688840738562075
  0.4837233248019414  0.6543866716891377  0.1986340587302106
  0.5243338751380876  0.8098523057376590  0.9910378762005488
  0.5017879551999199  0.4615436926272122  0.6755592524572371
  0.3181520668516691  0.1554777080622300  0.8693438816688185
  0.6908036460337310  0.5032820855133009  0.7862694399005654
  0.3242842097100335  0.4945090591222341  0.5308456930935881
  0.4955772908889885  0.3295500215409845  0.4961536643502892
  0.4714922776067685  0.4950933445584022  0.3304466183350983
  0.3632075710725886  0.4843513912260133  0.1305692385690185
  0.5204795021707272  0.3204414520723844  0.1536353454180761
  0.5369187243306740  0.5532941982297399  0.9662797309848913
  0.1592923991894422  0.1541860919077518  0.0072371879041593
  0.5004304389194216  0.0003083437132676  0.7826063200097335
  0.5048661418880249  0.1722151558731034  0.6661970418954003
  0.3390342186258924  0.1758938221613501  0.4844601014574008
  0.4739410781120388  0.9864948255876362  0.5281293245140637
  0.4950465676501632  0.1548802142610710  0.3201133044878786
  0.3318338884691234  0.1746014671481406  0.1591603589477172
  0.4933099459910426  0.9964170025059614  0.1652090411335025
  0.4904971816504652  0.1247345249903725  0.9991196846710939
  0.0245597914379901  0.8524738878414588  0.8428048857488565
  0.1512827656880917  0.6747069062161815  0.7998739951131607
  0.1876174292113494  0.8378826222179513  0.6700740866923237
  0.0006995256342967  0.8156726502114163  0.5124953976431149
  0.1851272931025364  0.6554058918842272  0.5164687572302714
  0.1415089703275129  0.7894938124982277  0.3494640930985796
  0.0159546694284413  0.7868104395277994  0.1767185371101259
  0.2097092040635819  0.6538338029310783  0.1706179323861002
  0.1936287636064706  0.7830289402983203  0.0278449778891863
  0.0175004087055683  0.4778818227185537  0.8218295568036700
  0.2013959299877261  0.3151410414757050  0.8394760134024399
  0.1718782807599820  0.4752492589375927  0.6387509298804563
  0.9936730926485929  0.5058585365160932  0.4928434557778524
  0.1771921122700546  0.3427840340391584  0.4778811818577093
  0.1651044036687532  0.5114740653009944  0.3260335467106482
  0.9997075747745264  0.4783011301092406  0.1605992407808304
  0.1621125318746276  0.3371099228660828  0.1437953260481978
  0.1712287935711152  0.5084708575920872  0.0044064195018874
  0.9937126993986144  0.1737219013746186  0.8397276707105900
  0.1897373464890206  0.0129307330022154  0.7959705538289603
  0.1460272837750866  0.1742562480576330  0.6551534722590029
  0.9954778879425353  0.1904253920479098  0.4615661689354401
  0.1450160898125166  0.9820512140472361  0.5012963235471608
  0.1834982411776105  0.1736399791476171  0.3466685350572241
  0.0180299705191961  0.1786094822462007  0.1653880676162308
  0.1753593377623406  0.9665074241459983  0.2011928580942717
