Cl O  Li
 1.0000000000000000
    11.7780000000000005    0.0000000000000000    0.0000000000000000
     0.0000000000000000   11.7780000000000005    0.0000000000000000
     0.0000000000000000    0.0000000000000000   11.7780000000000005
 Cl  O   Li 
  27  27  80
Direct
  0.6957433994023017  0.6635727607545550  0.6382569434493551
  0.6669315120832328  0.6639900843601551  0.3115665068657323
  0.6854260975347108  0.6617548443922868  0.9762880090773408
  0.6615827011789771  0.3177038389321433  0.6793310922146560
  0.6719533223314511  0.3396083080353160  0.3057551703956853
  0.6689321391005333  0.3438826766453321  0.9877665526929006
  0.6626693295816067  0.9825418973737829  0.6586119144581224
  0.6833133259318932  0.0140739120896547  0.3299256686209811
  0.6373182160745196  0.0142124417759274  0.0055236995653528
  0.3314903363267118  0.6835056308793498  0.6590342177691443
  0.3138890209600184  0.6507465375479418  0.3634640453655045
  0.3251509688976001  0.6899580335729973  0.0201321847723575
  0.3541530566725392  0.3154090044408521  0.6768160170933237
  0.3181463654551572  0.3496856933636377  0.3387580263803062
  0.3199724193848222  0.3367637626479403  0.0145062929876824
  0.3381819065795448  0.9980251995422412  0.6777234975569952
  0.3512925600336496  0.9597687391555009  0.3384095279715940
  0.3333980898136237  0.9700823239563920  0.0179040057130155
  0.0043745467420469  0.6789157594697178  0.6868455081816935
  0.0247729870619771  0.6486697574745555  0.3433635251581729
  0.0121382193589420  0.6842397123322738  0.0074247754899637
  0.9933388451920364  0.3224752671626246  0.6529683292841371
  0.9957517079375604  0.3476742567418847  0.3199462174992899
  0.9869219716085285  0.3292496908068875  0.0040735482388337
  0.9838510242177874  0.0029886298293345  0.6669033264126137
  0.9939922474465608  0.0296002641657325  0.3328261648448856
  0.0076858237497554  0.9778618434483537  0.0252200191331639
  0.8178006756003029  0.8399817402744150  0.8285242002458669
  0.8543166530319501  0.8217770708434745  0.4705992091700172
  0.8292173182892426  0.8406340411992724  0.1732122944809974
  0.8430738546932672  0.5137800233168112  0.8233054689637296
  0.8375433047838179  0.5031913882318423  0.4840669641824453
  0.8262093333019633  0.5348092788280296  0.1527144099751631
  0.8415456114390772  0.1542692997046649  0.8276080963898794
  0.8179883659607571  0.1825929937080442  0.5026006585399196
  0.8283035625870313  0.1619689566648554  0.1673619098330690
  0.4915843029243028  0.8343944298202381  0.8393106470437733
  0.4913174635874275  0.8249488597993470  0.4936832611770282
  0.5161677725736309  0.8177230238343196  0.1686712079903359
  0.4883406523657974  0.4977446836063662  0.8410487666630616
  0.5075616270423122  0.4917047462691266  0.4811138369256265
  0.5011970372028115  0.5086614934242603  0.1583939664358748
  0.4965264783711809  0.1625409649004610  0.8286182883385538
  0.5016552915578548  0.1566936976290975  0.5006918524323496
  0.5010942042615790  0.1694378872738318  0.1722326690168235
  0.1662890441737694  0.8409663454440108  0.8413564557785604
  0.1632315860155507  0.8306247523304596  0.5003656209991012
  0.1599409420174644  0.8497617197813612  0.1825208213892617
  0.1850605397078439  0.5130091811116670  0.8259519192402978
  0.1518188805327271  0.4842225566883968  0.5188678177076468
  0.1448522119193923  0.5022738269010973  0.1836606678632497
  0.1664948213911117  0.1617042934187641  0.8290194177801801
  0.1794502740262343  0.1495554720911673  0.5060576672087774
  0.1690460499835151  0.1740664020072460  0.1590971170356092
  0.6396859647891019  0.8191001755386359  0.8089370350364988
  0.8517150605895889  0.6751298068451460  0.8301677459475494
  0.8408903145938849  0.8285164341227346  0.6682746482178996
  0.6739376742139582  0.7934928298720760  0.4898224105440783
  0.8609243577581047  0.6539746821944425  0.4954763194975969
  0.8108735409897689  0.8344899753876823  0.3351954115196356
  0.6716951468723018  0.8340062557097904  0.2044623143998191
  0.8666493995768774  0.6808952935884426  0.1560925733081743
  0.8158664446552942  0.8496326522944915  0.9968317420447564
  0.6669594065306773  0.5257088874122362  0.8328260179638183
  0.8772683177484769  0.3631604523519842  0.8116273714974358
  0.8524025028502688  0.5291290138726442  0.6629581041853614
  0.6787046288066416  0.4980359356454317  0.4834170923821841
  0.8275990354833593  0.3456205938375707  0.4616258204851869
  0.8356076973348713  0.5324920559050449  0.3175134694590583
  0.6498161026065675  0.5441107207895555  0.1609068857091282
  0.8048804047864131  0.3442975306409262  0.1573161638526108
  0.7805768512613689  0.5067592054676895  0.0036331552242933
  0.6716121517819370  0.2008853950223118  0.8315423065856299
  0.7822709227546490  0.0074052983294234  0.8338956424942756
  0.8226904224413164  0.1693370583603911  0.6682632718177081
  0.6426245577837543  0.2084435554747828  0.4885216952937175
  0.8546934102567963  0.9960658442374458  0.5153857080846300
  0.8281141718393599  0.1730435178825575  0.3414885243678977
  0.6570013721908412  0.1924308471084912  0.1852405907432207
  0.8225837838715503  0.9980161402991840  0.1690673779692455
  0.8440800790717679  0.1582320824784761  0.9834524134934698
  0.3132325095525280  0.8488289359364809  0.8291821691281149
  0.4816678471004689  0.6574355369772439  0.8819242940072262
  0.4903599431570776  0.8184070653205650  0.6544660465392368
  0.3296487157569273  0.8318472497688281  0.4870371357968462
  0.4017510648800214  0.5992397439821480  0.5080937189597703
  0.5027108271656552  0.0114282206716102  0.1654426281256784
  0.3530772783597719  0.8387218343172677  0.1648046893999953
  0.5120738474356907  0.6845018958470066  0.1406412660000854
  0.5292736285066585  0.8266351580939197  0.0218995196755893
  0.4878799284007480  0.5274367642228113  0.6825312209574823
  0.5168724616189426  0.3329009484726088  0.8009244865856331
  0.4329932508720208  0.3544152394375421  0.4983256421633447
  0.2086451128378694  0.5089482110974133  0.6652073116196568
  0.5136290944583070  0.1429574534993394  0.3461896901694383
  0.5069743052003990  0.4999789114389862  0.3406384117301026
  0.3467569390733291  0.5162467588586822  0.1455011649726251
  0.4890365560771537  0.3348000988099096  0.1692661613320216
  0.4821046441882473  0.4480867777414401  0.0082504558154480
  0.3566349337577256  0.1640644308762789  0.8276804843028417
  0.4954908615850682  0.9986370422582992  0.8185035754622729
  0.5387692384942279  0.1536500753597237  0.6896527665065197
  0.3323795578705032  0.1363671372567515  0.5067329638464774
  0.5052710435190640  0.8028846456328397  0.3263904421401307
  0.5269808992566838  0.9661423698931074  0.4919837646388170
  0.1284891023301215  0.1690479520480521  0.9956485894664143
  0.3149061359137913  0.1766439866015165  0.1099296311839191
  0.4851934380537549  0.1611883675972697  0.9784187688538599
  0.0003668439825986  0.8069160104481665  0.8544983437264292
  0.1870010458913924  0.6752052716492631  0.8391075722275444
  0.1315092734257910  0.8333238336399422  0.6823098467359630
  0.0083164732038968  0.8379450002714535  0.5078204829281255
  0.1467688418324322  0.5012152144021420  0.3408984900035189
  0.1619922162825924  0.6588099356736847  0.5232408087762622
  0.0124335945839755  0.8603825002818177  0.1967413621140033
  0.1634044182305591  0.6790587539376050  0.1875611334698200
  0.1446615560026605  0.8589357136724147  0.0120810752336986
  0.9991086291611200  0.5234972909237694  0.8122349765297259
  0.1672741351682845  0.3264625334880934  0.7922262772321246
  0.3457695404104479  0.4933514498327838  0.8333358102457079
  0.9898209319171937  0.4862704706645003  0.5232325902380457
  0.1940815999628716  0.3203735683194237  0.4902733775253337
  0.1560407294447062  0.3395368108013725  0.1916435000232238
  0.9858495320769116  0.4746164620171174  0.1773556927898769
  0.0136633642141032  0.1676746464576795  0.1854330786247521
  0.1517356222871977  0.5085932755085214  0.0314231202634520
  0.9827992436317584  0.1468601255607511  0.7902203061407126
  0.1886764940961027  0.0074729330022254  0.8537205380307764
  0.1790452174998442  0.1519566111475928  0.6685652120049961
  0.9927939634462557  0.1840742334013009  0.5070857941940524
  0.1751813102184444  0.9826865934940562  0.4743693724847149
  0.1752170588354162  0.1669789654160780  0.3456948774892245
  0.1579910735828687  0.0212913726355021  0.1798138859102519
  0.1859374132016053  0.7962616779071400  0.3470935269462159
