Cl O  Li
 1.0000000000000000
    11.7780000000000005    0.0000000000000000    0.0000000000000000
     0.0000000000000000   11.7780000000000005    0.0000000000000000
     0.0000000000000000    0.0000000000000000   11.7780000000000005
 Cl  O   Li 
  27  27  80
Direct
  0.6648898377364316  0.6692496882056737  0.6702707884888451
  0.6545299047321803  0.6716353314714471  0.3310415548664358
  0.6705776734634747  0.6502457153264054  0.0095959468397447
  0.6865881551322202  0.3190857502141795  0.6630018760476477
  0.6624478792654401  0.3352333357236664  0.3500754869490552
  0.6409912597669578  0.3116773048076445  0.9970761150014666
  0.6629820842495197  0.0136574108556585  0.6655304732958982
  0.6745646361483691  0.9956286245949157  0.3473967293153596
  0.6616427864034917  0.9944673208536629  0.9838957548439311
  0.3433904606572563  0.6846555202770541  0.6623030573867763
  0.3259804590952061  0.6814654319158915  0.3425419213831191
  0.3452046928472206  0.6738691139645576  0.0119756102839538
  0.3499220932981448  0.3337428653569448  0.6479064860996416
  0.3264244828286578  0.3534901706053070  0.3443250607782539
  0.3505205081423799  0.3349810508916625  0.0148397822389639
  0.3262576424543196  0.9946393073031542  0.6676204516129232
  0.3388355686418072  0.9812027197305302  0.3162644814540360
  0.3347014819772126  0.0152916208748438  0.0166870087728553
  0.0110865511884557  0.6620925559813042  0.6805637586250655
  0.9997919044820687  0.6625828342956056  0.3367395321886675
  0.9911595008413390  0.6936349412879648  0.0026937249894719
  0.0049706290626152  0.3084226827030470  0.6504151240407945
  0.0020491199620782  0.3374793448105772  0.3503015574781270
  0.9750018913973862  0.3336992828131508  0.0065738609107022
  0.0113493457798447  0.9924593096771409  0.6664081564978581
  0.0346832104785155  0.9926305250060902  0.3238346255878475
  0.9962643820900657  0.9907316473127218  0.9967028784258234
  0.8458696605232547  0.8462809689616299  0.8280189899494479
  0.8371629492336601  0.8209738630951409  0.4842379816881544
  0.8418292975826576  0.8456982219710395  0.1690390250737343
  0.8358591570921441  0.5036785314689264  0.8238497214636206
  0.8268759304526998  0.5046214771517000  0.5068678278811152
  0.8470548304136638  0.5065359107312511  0.1659169522012609
  0.8479939299824940  0.1491330903513781  0.8412314034814219
  0.8291989832747152  0.1737032706648952  0.4874970571878446
  0.8243154711868314  0.1816653540522783  0.1653497313653800
  0.4999153144858821  0.8486789197920233  0.8463170187356961
  0.4936104406260343  0.8172473430523524  0.5090948897961768
  0.5172848913661132  0.8119357382398260  0.1568626230606199
  0.4841361259640901  0.5051146299301066  0.8350411033316871
  0.5021771128826672  0.5082428970703000  0.4934323397404046
  0.4968631194309549  0.5021106529984107  0.1768791866491009
  0.4999497270843261  0.1818263847702909  0.8121824740871891
  0.4838855617620082  0.1677357718473801  0.4991473006921037
  0.4821330293367835  0.1703534066334279  0.1762541121624243
  0.1827989486142810  0.8080733491612987  0.8286948533828867
  0.1713973664978368  0.8080242808444587  0.4974494640556998
  0.1427777039051346  0.8394461410857453  0.1572358681761543
  0.1653604655663422  0.5007879136850458  0.8314196834130873
  0.1552552870041008  0.4960000686208363  0.5044508084226431
  0.1418506285030550  0.5060738507476739  0.1635481508660202
  0.1749345767637739  0.1834974605507284  0.8305597733060882
  0.1732955451852992  0.1410218384710931  0.4943209135176370
  0.1494058031565434  0.1835872571899620  0.1585189419091364
  0.6836584689277533  0.8924910968311633  0.8253763453014133
  0.8378283674313358  0.6803971838893719  0.8575481572763181
  0.8298658589471487  0.8357161392977024  0.6432083162184360
  0.6455345324697558  0.8144595986951141  0.5024449587874611
  0.8093751403588727  0.6671823817182118  0.5058892145521897
  0.8348608678539907  0.7942717919439647  0.3323738082511353
  0.6721785070576767  0.8282887669620232  0.1653880001991202
  0.8467808251592303  0.6806970998061634  0.1604885672237800
  0.8629208196543547  0.8272594658998602  0.9895030612951082
  0.6467125769280164  0.5328359212763724  0.8385890017458469
  0.8772429382726208  0.3408169012774246  0.8216771933957401
  0.8149580783887767  0.5081440721846510  0.6663457279957399
  0.6660733477250333  0.4694173889435555  0.5067508250464059
  0.8530951726050028  0.3302742778608458  0.4945568624867325
  0.8549085950867683  0.5240965382609609  0.3271180935470230
  0.6481209833688019  0.5347382902037630  0.1729186406941886
  0.8001582319332889  0.3337406184166934  0.1737596036293384
  0.8330787001086941  0.4963899836039110  0.9895928920939066
  0.6626054079954935  0.1531526336699169  0.8338919654561193
  0.8897450757727120  0.9920099513583460  0.8559417771809552
  0.8190428133386617  0.1407467704746488  0.6522527567977005
  0.6573634380880538  0.1808140470948902  0.4913219162913631
  0.8229992095390560  0.9900492764822205  0.4708677965136674
  0.8034756873941042  0.2042697754078006  0.3341490125059230
  0.6713113095768896  0.2020403248535529  0.1480329474597029
  0.8396407372924430  0.0120629208191256  0.1976671086317027
  0.8228626117659386  0.1579049932723192  0.0041072809846255
  0.3451790655827323  0.8610600059164115  0.8432669289220855
  0.4800113509437802  0.6975213786999928  0.8480811299881620
  0.4850491529289225  0.8209848751266431  0.6648839212992516
  0.3343308178065615  0.8249502590880424  0.5154015854994718
  0.4937643661546034  0.6533678286842888  0.5075383877258527
  0.4778945712853789  0.7704458852853223  0.3166103887965124
  0.3056564999104484  0.8089949590330372  0.1604878890931636
  0.5138801493614803  0.6523245601556985  0.1417137215220334
  0.5041881041649108  0.8673237465997666  0.9988669692393858
  0.3235064361795469  0.4717640042741523  0.8225328120492860
  0.4979242825107359  0.3198106617217534  0.8327797502744115
  0.5249734755666867  0.5023257114959804  0.6818291705979640
  0.3478550297231425  0.4936963273393596  0.4942907114018262
  0.4660795116772783  0.3231573678912459  0.4791698966163814
  0.5037222790382098  0.5137129617773080  0.3204076368504559
  0.3229526767424691  0.4941515452886580  0.1539048501030113
  0.5064798212796372  0.3346812766738059  0.1491991195715005
  0.4509051346944907  0.4973233747299403  0.9938481838522448
  0.3409670445040146  0.1842423313653997  0.8216548454494563
  0.4848124752224480  0.0034403578214942  0.8170408042500936
  0.4873782380770179  0.1802164622015588  0.6592260447755595
  0.3352145333346018  0.1456539867700488  0.5041372489227041
  0.5010804845837838  0.0088145777485751  0.5269816677883152
  0.4771221096638374  0.1829121629793119  0.3228068629712620
  0.3189511190672936  0.1849176887312144  0.1662169490888721
  0.5048172474352859  0.0112215859242720  0.1923242895681174
  0.5019559006027876  0.1502339493755996  0.0007995053322918
  0.0040606268007140  0.8517509526978182  0.8195713852834308
  0.1839087751568028  0.6668537616457771  0.8140307140214977
  0.1552859142167159  0.8321407108047876  0.6808186547660103
  0.0209756882167675  0.8424575268474591  0.4740832287414488
  0.1359448598143369  0.6602527774976716  0.5121684206621394
  0.1911524247022013  0.8403999773437913  0.3237478451116538
  0.9917570642267962  0.8568228029127148  0.1774987551200266
  0.1151036792749669  0.6827335159258456  0.1686288269002826
  0.1613132808341710  0.8400561752426317  0.9857081854331531
  0.9929538053534323  0.5116511208201872  0.8303931353587999
  0.1383880227262739  0.3323814827197978  0.8379271462642452
  0.1366776760982005  0.4394809383927487  0.6549845908038197
  0.9869162768980837  0.5115394620595892  0.5338464143821410
  0.1912693465660908  0.2966349507466519  0.4981892134660147
  0.1655121643973651  0.5013435354509805  0.3452560227796872
  0.9928735322743010  0.4827621087951939  0.1504498049765354
  0.1746266447358156  0.3460987493136493  0.1440984032593207
  0.1324066981412663  0.5344965518210468  0.9977246988596243
  0.0019839457268065  0.1721559790253311  0.8228243070008110
  0.1710802847672334  0.1447928924648093  0.9845034393389593
  0.1623250213497751  0.1525275490618878  0.6698762581690378
  0.0012996344432588  0.1833098714037990  0.4499995919631664
  0.1582183635504108  0.9744926805397529  0.4882683042470880
  0.1623108312135933  0.1424847180309448  0.3116365942444759
  0.9961869047182658  0.1923423283017231  0.1592314648812706
  0.1791648567623718  0.0232630222323569  0.1293692240868728
