Cl O  Li
 1.0000000000000000
    11.7780000000000005    0.0000000000000000    0.0000000000000000
     0.0000000000000000   11.7780000000000005    0.0000000000000000
     0.0000000000000000    0.0000000000000000   11.7780000000000005
 Cl  O   Li 
  27  27  80
Direct
  0.6914058674436622  0.6424648563191292  0.6473313781119790
  0.6642467564997403  0.6480062158330311  0.3467399622558600
  0.6416744805597056  0.6429041635023236  0.9876229794980274
  0.6640538030359946  0.3359804246784213  0.6540026854171400
  0.6976029691422657  0.3007390696504325  0.3386732038410926
  0.6674917835621834  0.3647748223003988  0.9646091797986045
  0.6703964092979011  0.0013610834497333  0.6841000249870247
  0.6581696535561812  0.9934953689385608  0.3325709797006695
  0.6682030717293145  0.9895141589773844  0.9812515020781617
  0.3557011721538804  0.6758296923539705  0.6961749604414917
  0.3308548307378507  0.6536736064280576  0.3305722554976359
  0.3389199494935158  0.6677182785320457  0.0015167406550249
  0.3387644450339591  0.3395916827591278  0.6709636835403167
  0.3442502383227266  0.3435081198599170  0.3359610255014963
  0.3149178098454307  0.3451900862156267  0.0114218747972292
  0.3234591787208549  0.0182259897687238  0.6512953450840309
  0.3289202759095626  0.9943479379020866  0.3392285624518628
  0.3281265392051007  0.0072362625646159  0.0122905031842237
  0.9734856638549856  0.6489580683059905  0.6626864414793022
  0.0024385356045967  0.6776965555768488  0.3142595300010280
  0.9903762015502638  0.6657343315036381  0.9717729364481744
  0.0240679148871587  0.3609751451218594  0.7096268856586355
  0.9931892524516334  0.3562798497047590  0.3389302254660588
  0.0104011310691568  0.3443618356991961  0.0196961841963616
  0.9884611727086700  0.0084094759748193  0.6928273838356859
  0.9777813429726557  0.0240543187244216  0.3327925158638285
  0.9926235004770317  0.0063103270798598  0.9962140410512229
  0.8161676499960772  0.8291629193758562  0.8324865017107096
  0.8665496374176734  0.8235318037081305  0.5037731508916176
  0.8341936977983887  0.8226382097400662  0.1604976232160556
  0.8306932482846717  0.4949120956422159  0.8303935679587596
  0.8362612067129003  0.4864972841582456  0.5099546252219865
  0.8535564928659022  0.4939338466819797  0.1718772419976107
  0.8294417632927905  0.1663978621905319  0.8202803935280563
  0.8377630534798134  0.1433995582817614  0.5234319752765689
  0.8333650424278586  0.1703386209013391  0.1570827699802917
  0.4914645004871815  0.8556147906936401  0.8227623920694723
  0.5050849259804707  0.8351621283907019  0.5014701383475197
  0.4856116057438372  0.8198599389687526  0.1447295276965854
  0.5045818137912204  0.5028850493621662  0.8044887355000042
  0.4989239777529382  0.5076024498130906  0.5038305996883141
  0.4959113774289264  0.4866829097627930  0.1488319041638492
  0.4946007027677218  0.1786270774209053  0.8283271926357262
  0.5129860180977880  0.1707679686736895  0.5143216244499318
  0.4902246752933614  0.1679707102451169  0.1679527179361871
  0.1613852124223248  0.8202145101889550  0.8138593265416975
  0.1760905456883215  0.8339977680009991  0.5179121540007520
  0.1667338715062932  0.8492414155201836  0.1754827713928115
  0.1763483567787815  0.5021768380861900  0.8389755841857576
  0.1627747222980235  0.4858903268925143  0.5051809095658442
  0.1616571427994993  0.5012373336632606  0.1729615222464641
  0.1717644772098197  0.1595584088565625  0.8333797717954943
  0.1648962994775020  0.1606376992786415  0.4901968949805663
  0.1609840323739360  0.1737187477767321  0.1804253921791988
  0.6642520196030317  0.8367292376384288  0.8138012704638522
  0.8339989629766058  0.6750658136393350  0.8472172800568498
  0.8597479266071151  0.8140144125700165  0.6624954313152333
  0.6934925664424825  0.8264491823479773  0.4938423632326671
  0.6589337751832763  0.5021782145901277  0.5076939199312699
  0.8704058727138909  0.8299591864184387  0.3241159054765196
  0.6693657722172103  0.8229995825091376  0.1699529097353308
  0.8449384446240631  0.6683458023860234  0.1893189031502293
  0.7992879060906379  0.8321194878925191  0.0096131903735950
  0.6765619728621661  0.5266375154871881  0.8170883618672168
  0.8046425873793339  0.3300781174922525  0.8330814752951002
  0.8344592011167361  0.5035074315690822  0.6732544290052045
  0.8365927822202599  0.3289176639446081  0.5065043371311778
  0.0079495469490412  0.1037400709530806  0.5373063657463745
  0.8109469754142626  0.4710143678663507  0.3390797988130602
  0.6636983816221836  0.4972049463484203  0.1826493164749906
  0.8613535779650991  0.3345225248239915  0.1759123013495067
  0.8557112073534117  0.4731322001454102  0.9787366142018503
  0.6547851542565153  0.1816708515105663  0.8633265056404245
  0.8157657918170719  0.9926794089069679  0.8362975552894405
  0.8141622457004044  0.1629817741497650  0.6752639223272805
  0.6981849873954773  0.1923549916775695  0.5161806739886931
  0.8522179642426629  0.9795472614956952  0.5299732839304316
  0.8521042812115683  0.1637038719213486  0.3290706718858872
  0.6618192918055052  0.1829022759818251  0.1682868136603153
  0.8432452638098015  0.9883790170345477  0.1766383869339687
  0.8371484039861946  0.1318913274741983  0.0046308821826585
  0.3399745741795926  0.8184095086724559  0.8363006321805957
  0.5098372248547582  0.6797864934084638  0.8253594501459212
  0.4911077025694327  0.8548041108451209  0.6566397835640134
  0.1690870454732993  0.8700063822753530  0.6634583767905146
  0.4864207471467789  0.6710076371183666  0.4966039135296779
  0.4906527275325940  0.8470192523397242  0.3491716779181381
  0.1154521869410851  0.8275248796899247  0.3448904672738432
  0.5201528263351317  0.6605405797194299  0.1468297387009712
  0.4943062118958617  0.8424492592663697  0.9902382186864592
  0.3296182646195304  0.5087572961314590  0.8060748728904003
  0.5033429197618288  0.3349103345657497  0.8057174676915025
  0.5019662943678417  0.5401285091249183  0.6575735795441422
  0.3349902939063831  0.4777868482109368  0.4847914045024031
  0.5073013807181297  0.3486671756478118  0.5275345238068251
  0.5115310939209884  0.5107048872617459  0.3219052199097763
  0.3413600253929454  0.5330679750886513  0.1741612466417445
  0.4660537519712613  0.3325459056547819  0.1538663762240244
  0.5187753912329458  0.4830610040192739  0.9884584617208074
  0.3246434376895405  0.1823581115869016  0.8071607725556509
  0.4861458916987366  0.0221918152741254  0.8451259657212971
  0.4866282348726909  0.1751487126983074  0.6670417809091863
  0.3462743063923789  0.1771970922566251  0.4919728684581430
  0.5303793194282405  0.0084195365991879  0.5051900187830792
  0.4993412203877184  0.1760540271925474  0.3339586576115686
  0.3296476570271424  0.1314273241909443  0.1591039028577238
  0.5116331576394322  0.9982561430222381  0.1400559122165048
  0.4521945840155909  0.1497285513245775  0.9950071766743501
  0.0073593685983019  0.7988931929304723  0.8361176381276938
  0.1663971442305193  0.6592910380272256  0.8591057397131608
  0.1910530017928093  0.9815410146065779  0.5258608164747419
  0.8487774637426183  0.6384728734434031  0.4886438341700867
  0.1976612125865881  0.6654728362408742  0.5527066108311840
  0.0225044189622685  0.8369595186501337  0.1216684309170071
  0.1248587290267997  0.0154377479571324  0.1747600258546690
  0.1256845504186342  0.6749811586471629  0.1666252721939173
  0.3196269107873185  0.8290825153517272  0.1542049051005404
  0.9973875992668536  0.4860091515706708  0.8465895132904128
  0.1748015509641366  0.3288942026495513  0.8189642938219205
  0.1875593538279613  0.4818704090839337  0.6839176787006817
  0.0071766851444044  0.5010152711897724  0.5317755324390554
  0.1452330723042203  0.1604683386875350  0.3409534230993975
  0.1540119792010800  0.5175191485493839  0.3247418706422148
  0.9999456123085754  0.4867537592301776  0.1951821824012217
  0.1841084382132986  0.3582397888850758  0.1544505300826102
  0.1857205672368721  0.5207494794080211  0.0051090708577104
  0.9966203295828439  0.1763455019013675  0.8171519239608130
  0.1404544275494183  0.9606041875291512  0.8752136697636176
  0.1842540642328313  0.1533406089921301  0.6577123635293961
  0.1368479467470840  0.3176039958958357  0.4937911087036906
  0.3337867031544541  0.8115112505234697  0.5120037132749782
  0.0184279645438840  0.8113479323797957  0.5180330839202251
  0.0035238684741084  0.1698271079895275  0.1577042918722466
  0.1692671245766859  0.1728339391426237  0.9958048230675010
