Cl O  Li
 1.0000000000000000
    11.7780000000000005    0.0000000000000000    0.0000000000000000
     0.0000000000000000   11.7780000000000005    0.0000000000000000
     0.0000000000000000    0.0000000000000000   11.7780000000000005
 Cl  O   Li 
  27  27  80
Direct
  0.6808942404289162  0.6662859143330284  0.6871762670561039
  0.6680658310101666  0.6587610126448181  0.3294963341665850
  0.6706688809272857  0.6667578527566295  0.0025104005063336
  0.6752959989140571  0.3336443856442662  0.6857826782753544
  0.6657814012692284  0.3618037696114282  0.3549597946862392
  0.6603206886919152  0.3286186280685793  0.0113657189491328
  0.6748974605386664  0.0038749555109701  0.6784292727836247
  0.6525625910424849  0.9929301819776256  0.3235371449794588
  0.6816084030601527  0.0086206005448765  0.0235654823089482
  0.3110446767110943  0.6809035359584028  0.6641157370722648
  0.3442554252757266  0.6608689259984439  0.3324801696068386
  0.3447731931833730  0.6798783644080530  0.9760606209083720
  0.3676243731124433  0.3377414686441811  0.6542258801627575
  0.3284128366019777  0.3288636052840902  0.3361072574828293
  0.3267242306390388  0.3075010738782945  0.0132205491490775
  0.3362683623904142  0.0071650520071455  0.6776228034177387
  0.3251224051522935  0.0037515373202475  0.3469480154581622
  0.3476173742020592  0.9957792085938133  0.9693734205494738
  0.9982441292345599  0.6657726807912946  0.6522199090713456
  0.9821094886186070  0.6559045240615119  0.3281066522278940
  0.0157424278942147  0.6954034664970992  0.9735809755814080
  0.9879997349481227  0.3289595152202239  0.6631573259628961
  0.0059412953931624  0.3144372974633589  0.3269716842458031
  0.0230092869660269  0.3513966711046037  0.0026637778213343
  0.9771732442842842  0.0016325006793155  0.6666354680157396
  0.0042289399929133  0.9898054275793285  0.3275408281386559
  0.9917108787587353  0.9880127968859023  0.9983488923303039
  0.8284211309288819  0.8130043516820209  0.8089318459792767
  0.8453258138468402  0.8298886299533728  0.4865538545337129
  0.8198088316152533  0.8146170475013335  0.1469762743228787
  0.8255705532154262  0.4961497442283485  0.8407543498372707
  0.8371082472800685  0.5078813229211651  0.5128743506962609
  0.8236291158674490  0.5096402520411594  0.1494387993821167
  0.8469081456087024  0.1511360766907933  0.8619063571114095
  0.8296737495122409  0.1734110075375674  0.4906840545989539
  0.8372739945483386  0.1775816120419226  0.1507700608742727
  0.5140004658350337  0.8305352629208392  0.8231212534237790
  0.4989111891839276  0.8454125174801207  0.5211398115029846
  0.4875226028840721  0.8493490758296471  0.1604132907878142
  0.4838996040344848  0.4742573802627461  0.8441679986320892
  0.4966382168140008  0.4972608258185783  0.5065707318841211
  0.4962749007452526  0.4889053659455711  0.1687174961318449
  0.4984286030975137  0.1508050578578201  0.8351584564761877
  0.5067832937477321  0.1627710571955073  0.5151361895784559
  0.5095884873166519  0.1713425269732174  0.1802290366216699
  0.1590104038242373  0.8511827410163797  0.8267557096443776
  0.1579234312956233  0.8463761512073709  0.5128633791501688
  0.1679463839902886  0.8305960720065602  0.1748345986604187
  0.1752122195403309  0.4934785978517204  0.8420220289931254
  0.1577144456095438  0.5084062972317798  0.5017660044039689
  0.1584990022473031  0.5081055716067897  0.1681748904252039
  0.1562390763007275  0.1722767278074454  0.8010337092968846
  0.1612385487240147  0.1654797537898492  0.4922270345423601
  0.1723517431441463  0.1650740191328428  0.1705753715937179
  0.6636598443324550  0.8377816654741130  0.8224205319486406
  0.8345610672286584  0.6613468562627153  0.8276050935447939
  0.8281553846980747  0.8251670595052251  0.6504645021820156
  0.6689977241760283  0.8800609839223306  0.5150517370133335
  0.8354501268308101  0.6635879261296139  0.4832467633378409
  0.8499511099901648  0.8229033582941732  0.3190343374438899
  0.6295192268724578  0.8143225566294734  0.1405842252540903
  0.7939160638086584  0.6702445777163788  0.1738770377446588
  0.8330325810620088  0.8056407033815779  0.9876865579846420
  0.6626814739159889  0.4625960842415748  0.8381849837812168
  0.8549206940595682  0.3244690354919799  0.8616776955161018
  0.8436214590594372  0.5019584693894547  0.6818300877034941
  0.6725008862122108  0.4980473358773668  0.5062050271761868
  0.8286233960369124  0.3455089589087162  0.5134965304761272
  0.8423302173950009  0.5113182103412856  0.3457947075853712
  0.6775714408939899  0.5094256388830991  0.1925810744644307
  0.8618857230138004  0.3476919726977696  0.1684699076073932
  0.8311859605440972  0.5376899205474001  0.9905377518354300
  0.6593416300234802  0.1937398047288122  0.8505388637101295
  0.7996343850493820  0.9945217374545228  0.8449993260396746
  0.8538234584795357  0.1825742323095785  0.6666170876396295
  0.6736838698904835  0.2138288675651326  0.5245118008109809
  0.8433941739680675  0.9747307813432373  0.5270604788225585
  0.8396600426682110  0.1767659322452765  0.3240535971112824
  0.6736133038209685  0.1560962681450920  0.1629552684640478
  0.8366250134270959  0.9957841376924728  0.1663853543352994
  0.8173350920974636  0.1487418100327041  0.0058449965566526
  0.3558966810189803  0.8117232313700683  0.8120752141773755
  0.5024289259676863  0.6719711185084259  0.8241922544581742
  0.5257670239220334  0.8907803059105663  0.6611439055560565
  0.3396362424293022  0.8533797222718603  0.5341401219723143
  0.5077288709821516  0.6876341543891171  0.5236679229263157
  0.4615752202594763  0.8306851399084151  0.3276348757459327
  0.3462111134880003  0.8066132438990135  0.1413052805263680
  0.4931606010714865  0.6647551204980124  0.1580753696990007
  0.5397238022010545  0.8190774060845867  0.9719921712146329
  0.3301777778053472  0.5209654786744680  0.8428251785553968
  0.4389469529975028  0.3184144829217542  0.8407941065098261
  0.4912337384710859  0.4914180524277175  0.6979211758234181
  0.3466306637911468  0.4883040361518209  0.4875966777227939
  0.4945960922515178  0.3426022279316818  0.5211868150639181
  0.4957921527171991  0.5010838225932398  0.3403796423077586
  0.3260928809138224  0.4521174885008069  0.1865940920433848
  0.5316611328126905  0.3356119360816506  0.1884246196108475
  0.5157556702973141  0.4862856765249692  0.0111715034792494
  0.3254960854859847  0.1679314186378724  0.8664612086414486
  0.4725725555577291  0.9857714879020509  0.8240449685368341
  0.4875959219614626  0.1502428470914185  0.6726088878244574
  0.3278149480680718  0.1566707763547610  0.5091241062032509
  0.4927974064589683  0.0010534089598232  0.4917332744828045
  0.5245083325271840  0.1689407401502330  0.3392554434447101
  0.3441891506596646  0.1628896794466140  0.1400285022746307
  0.5043792701058488  0.0023956727179577  0.1697841449846720
  0.5107902157397239  0.1420173453842997  0.9984976347775247
  0.0001873701601053  0.8673059745517915  0.8260939351335960
  0.1684571175579591  0.6928354769449830  0.8287156893101045
  0.1722047406206758  0.8621099150992169  0.6732564114709425
  0.9934564502237895  0.8015192886502926  0.5142239723218220
  0.1627778546164693  0.6581915853540958  0.5577644517748949
  0.1718278416968949  0.8383171255059007  0.3476401945118045
  0.9925911384774869  0.8226372072092668  0.2156470294932011
  0.1839240117488725  0.6679688928239864  0.1725396831983076
  0.1363240298776560  0.8563313515685115  0.0159243571301699
  0.0262528616143886  0.5255072939025084  0.8514641172687623
  0.1848073224228134  0.3336842840157562  0.8545503200680341
  0.1956404286556688  0.4841714474473938  0.6829095097031554
  0.0056580347944672  0.4985023918850255  0.5104774524865260
  0.1320379103774066  0.3259032716243032  0.5021977408155055
  0.1696503136808876  0.4826627586462017  0.3497574599951251
  0.0041608109553009  0.5134064477856833  0.1766470494923458
  0.1399012498499605  0.3265956935904051  0.1696304117618000
  0.1527930999060767  0.4872055050386707  0.0197680963515772
  0.0022160270770130  0.1573453442550820  0.8551071563962668
  0.1891608197665455  0.0049649897487105  0.8266852650310924
  0.1724053660696039  0.2065753598224152  0.6560358208992687
  0.9893213368745023  0.1404017346154720  0.5142769272380158
  0.1331393058333097  0.0052093492454276  0.4934405037343131
  0.1760589516463964  0.1827292307015110  0.3315532561463987
  0.0153883134000432  0.1541314707155831  0.1511508868828173
  0.1783082198088069  0.0147475157246831  0.1536855468212052
