Cl O  Li
 1.0000000000000000
    11.7780000000000005    0.0000000000000000    0.0000000000000000
     0.0000000000000000   11.7780000000000005    0.0000000000000000
     0.0000000000000000    0.0000000000000000   11.7780000000000005
 Cl  O   Li 
  27  27  80
Direct
  0.6611786115463271  0.6997508413524196  0.6894415992677576
  0.6508547510423270  0.6577450423337164  0.3480490277655227
  0.6796420232321559  0.6575530200343993  0.0153514811862715
  0.6842858616932301  0.3196237324395622  0.6655855714641243
  0.6564398347989575  0.3345174443179820  0.3338314019902964
  0.6748138546996523  0.3228438204894859  0.0101519248064140
  0.6756823072281474  0.0056470259229591  0.6580130184484216
  0.6798467174647826  0.9926656366895131  0.3208157880360118
  0.6693048835136975  0.0057502687789672  0.0077928602122624
  0.3314650484321096  0.6868675742032093  0.6792761986582392
  0.3474695585028896  0.6598540892788205  0.3272850731456018
  0.3407184139693388  0.6643591842400507  0.9982733693679466
  0.3437293139061333  0.3345730105431164  0.6627077065843729
  0.3050859901240920  0.3580545078194499  0.3304025306813428
  0.3556225508408166  0.3264627707980799  0.9855388033898166
  0.3341213366632919  0.0032100076208564  0.6431364926265188
  0.3325097744354575  0.9894081034309076  0.3217924783079655
  0.3550738115945706  0.9990128307707249  0.0261123804253405
  0.9734869632714696  0.6464710702293844  0.6817819216498769
  0.0147049035611656  0.6639371643268981  0.3432287538879560
  0.0033025085736000  0.6846996614720615  0.9885205639528112
  0.0061012877353833  0.3466782695696242  0.6838639243411447
  0.9977370317744836  0.3187616766058367  0.3062084699474654
  0.9867225243365734  0.3264565158022450  0.0203381564245124
  0.9840519143916269  0.0044119893940328  0.6356725214802593
  0.9963695105370555  0.9876047175352984  0.3416055723474706
  0.9763635705731748  0.0009689565733473  0.0006481364497455
  0.8267031695762402  0.8360252170153180  0.8243643290345981
  0.8177533029145816  0.8084357056783875  0.5012420133273968
  0.8452163378308781  0.8220106255709109  0.1572454303795571
  0.8393249009772766  0.4957003672292738  0.8549740519526080
  0.8159678963364905  0.5014109152712900  0.5101203017842921
  0.8220879947853994  0.5056702233088106  0.1838022297585376
  0.8589706890602292  0.1658959143697543  0.8026696553257034
  0.8403883717254240  0.1771882061220817  0.4908252388075981
  0.8183591265888346  0.1696558045116811  0.1681307324271700
  0.4964940043163154  0.8380077065689681  0.8535878315164664
  0.5031327208664793  0.8265513072074733  0.5046893459832803
  0.5009767513312618  0.8376428520546425  0.1620376175039821
  0.5119886613770910  0.5073727967381767  0.8389861206571958
  0.5041891471532982  0.5041456642269244  0.4980418440991607
  0.5063284771850327  0.4781025336078346  0.1448958216613924
  0.4897561389972229  0.1726875443132393  0.8499607436404758
  0.5060886011311735  0.1746398722364885  0.5042098367880216
  0.5019785223146698  0.1526764361337468  0.1691748713920739
  0.1562802667378350  0.8406173960933164  0.8286786162588090
  0.1638626981935615  0.8466613819715493  0.4874820346260649
  0.1752882071872768  0.8331376356371825  0.1483305228693765
  0.1742145341158261  0.4951998056208493  0.8456698569832066
  0.1577828726061844  0.5094394149736698  0.5026588002480386
  0.1609098037278500  0.5115572472527293  0.1600401179845990
  0.1621959239879296  0.1640407413089944  0.8344660865796999
  0.1577914352703855  0.1607593887124879  0.4866859295251220
  0.1692845852627481  0.1668783636912712  0.1616042920401056
  0.6784933306960974  0.8388658353179301  0.8272727199134395
  0.8004422274517052  0.6678897953841684  0.8345367741054449
  0.8265901343117046  0.8046440041256050  0.6754487080030750
  0.6523702818777979  0.8397008064124096  0.5196566400942554
  0.8226159245309395  0.6597510134251284  0.4974153323804313
  0.8259953226689535  0.7898920923954792  0.3222278786491012
  0.6790346206269156  0.8156485863122362  0.1372136139128835
  0.8567404287977830  0.6499239493864289  0.1337034985075447
  0.8502551519512688  0.8407803093828908  0.9818280574748736
  0.6715821068516674  0.4907261273377279  0.8288574807998976
  0.8389650666537829  0.3065143137904603  0.8399400378860616
  0.8491774303388246  0.4977920459335159  0.6772025359614177
  0.6656125736423031  0.4995395176824989  0.4728111342012171
  0.8275862373377217  0.3421714742211768  0.5345943798559784
  0.8466611811406042  0.5258297712438261  0.3370132313278325
  0.6678478945809914  0.4826107459456296  0.1701420678353981
  0.8188149923046919  0.3284282159941477  0.1939556264440105
  0.8118830804157855  0.4634781509190010  0.0097871854224729
  0.8448610378732970  0.1682853025359465  0.6404663178997291
  0.8350378199485414  0.0050635960573682  0.7962795191925346
  0.8288497060109431  0.9764143731058612  0.4977158555783717
  0.6579871871666366  0.1798224095621450  0.5225433307933722
  0.9954742121433543  0.1451776981417065  0.4812984145689694
  0.8077794792648714  0.1391772543218576  0.3106207521064218
  0.6639243725334636  0.1507091792155845  0.1497585950980374
  0.8531859717472140  0.0205504220379520  0.1684105068525192
  0.9980749948775172  0.1476431988785747  0.8014962163257353
  0.3520204829481652  0.8333342327878224  0.8296002261305475
  0.5196589866577843  0.6817351578150513  0.8480286179367835
  0.5142085573745943  0.8582361606716915  0.6956621015333030
  0.3475317440925484  0.8445010804974689  0.5313393933826915
  0.5112313817842747  0.6605075642805658  0.4847248162679171
  0.5033587913955511  0.8501533295491801  0.3401234014897854
  0.3367859041608057  0.8140066600269513  0.1464716555149601
  0.5119848962339673  0.6673273720693648  0.1788723213908696
  0.5219167365135761  0.8472045342312243  0.0106883957082809
  0.3486069960949865  0.5169420092010063  0.8692733367996712
  0.5169744800958780  0.3569073942143787  0.8337446365746753
  0.5019250006027369  0.5218472619540245  0.6679112963231951
  0.3563171590190550  0.5064221588275156  0.5091914450241755
  0.5177662937433679  0.3453198221246975  0.5134855300288294
  0.4919756301406267  0.5193921862102145  0.3353739770796031
  0.3124933424245587  0.5129874348440592  0.1672165111427445
  0.4930315706025264  0.3209818357585045  0.1580096329774721
  0.4962120234361247  0.4895280830869598  0.0010302213015052
  0.3265174276975953  0.1565651508500838  0.8557418982374169
  0.6061858622435726  0.0811092990693046  0.8323757438939857
  0.4651334389856688  0.1849558785709614  0.6942694034315718
  0.3388690404435519  0.2118756195286481  0.4877913431579611
  0.5044416141696468  0.0196057784982992  0.4981908708931279
  0.5356487802820533  0.1687582429734435  0.3148726310712195
  0.1757219881120151  0.3510647017943377  0.1747409877341505
  0.5051488537957846  0.9948012698972529  0.1808401552261235
  0.4926123441826594  0.1810605546114527  0.0096467946725123
  0.9930153974352985  0.8226606593128118  0.7988177114829391
  0.1759979569088304  0.6798031940529988  0.8103307094475221
  0.1672024105084879  0.8709872834428769  0.6533245650656001
  0.9856067957803846  0.8276968823669667  0.4725513798110803
  0.1584051434782231  0.6630197649377929  0.4721982660656357
  0.1519967585465263  0.8293431810765245  0.3276720326937514
  0.9938075659627099  0.8333828152797432  0.1238776793952007
  0.1561014426821564  0.6821055183451278  0.1762947165538941
  0.1681365303718960  0.8300405017772284  0.9849198738292666
  0.9918738859988272  0.4747487627343087  0.8257876341062392
  0.1779668231220377  0.3535957281671842  0.8218543955603274
  0.1426512178522298  0.4933907150779467  0.6665037400760184
  0.9905043019032459  0.5437242414638520  0.5265844629567583
  0.1355639330813491  0.3387328256857242  0.4802268467388353
  0.1649502375179147  0.5112504083308392  0.3250718977261476
  0.0001446709532493  0.5070790750891052  0.1716660196361353
  0.3369403964851140  0.1381546434736861  0.1693666710216364
  0.1590764219389869  0.5195034806021231  0.0083563981410084
  0.1620852874839323  0.9934237746995368  0.8614075884452261
  0.1207851289176746  0.1859120629827835  0.9985643031322270
  0.1855838493605529  0.1495290295160072  0.6463715602781183
  0.1843818780250212  0.1608959460001954  0.3175055592208698
  0.1876400628456928  0.0085802792715919  0.4887822235660966
  0.1721935024519188  0.9940724230813165  0.1751991813610789
  0.7906136555743982  0.1580053484590199  0.9684945166570531
  0.0024295843050608  0.1935620038595751  0.1398218358411216
