Cl O  Li
 1.0000000000000000
    11.7780000000000005    0.0000000000000000    0.0000000000000000
     0.0000000000000000   11.7780000000000005    0.0000000000000000
     0.0000000000000000    0.0000000000000000   11.7780000000000005
 Cl  O   Li 
  27  27  80
Direct
  0.6635657458606961  0.6682246782894572  0.6564920754854837
  0.6514545759643379  0.6755593795217973  0.3288556365706371
  0.6415181203479966  0.6786427483423739  0.9878080754060151
  0.6641303553876363  0.3266778168899639  0.6594622470998845
  0.6619059250242204  0.3424650215229231  0.3321958043464251
  0.6724252895727920  0.3392493463826821  0.0000274469489770
  0.6595235610766517  0.9729025499682959  0.6477977932167386
  0.6651444339356640  0.0044500048073814  0.3611747749522919
  0.6782610589877341  0.9919497296361472  0.0004883953629250
  0.3232563817439516  0.6723028546029329  0.6638235783704390
  0.3341244268855801  0.6764745117279464  0.3381763900727014
  0.3826021020801091  0.6806660067038275  0.0317972432708651
  0.3267150503146166  0.3180772988306261  0.6890655836977542
  0.3165272207879949  0.3436634301423806  0.3298452821737697
  0.3408802272412734  0.3297014292454777  0.0028786180662586
  0.3319675464286391  0.9980959351649108  0.6804153090696072
  0.3283001350843542  0.9996457212434235  0.3119914997907275
  0.3332014202671989  0.9779609919214902  0.0001016598287722
  0.0242421838363523  0.6679227381021693  0.6510785284107434
  0.0115344082875155  0.6609526484716950  0.3214023738153051
  0.9777690905776070  0.6419245462881061  0.0086385538803027
  0.9735232996063280  0.3110851041663280  0.6604069741406954
  0.0065058572185432  0.3448305030545491  0.3340982542446356
  0.0127303776610245  0.3286556708641765  0.9929195443900395
  0.9905924013650431  0.9920567920375488  0.6681234932741233
  0.0124753600638500  0.9957002676483793  0.3195296199652813
  0.0229526805142051  0.9946330804661169  0.9780829042879361
  0.8345442149190538  0.8289596908679437  0.8417854567591390
  0.8568539429756663  0.8312438776964223  0.5225984443537565
  0.8415893240141358  0.8049814780971298  0.1466072540702932
  0.8331011529673648  0.5041228990208559  0.8171045792135097
  0.8297400542346409  0.5290310616578551  0.4833199449752599
  0.8301693615215813  0.4962766241485894  0.1587845973691885
  0.8158065955517415  0.1565792476097602  0.8227127801392127
  0.8404984851288728  0.1715249123904779  0.5060369967412187
  0.8414579893443096  0.1798400892806006  0.1799818774529859
  0.4934039889769379  0.8510799472060651  0.8252840894949436
  0.4963039588905132  0.8493908959036167  0.4925348291303468
  0.5137852755021621  0.8378549831970115  0.1730014640429785
  0.5132298156778672  0.5010249554527032  0.8245955136427853
  0.4908703310524458  0.5035982890789308  0.5059830701751867
  0.5072467603415850  0.5058462009801084  0.1838791649548764
  0.4911029602179268  0.1727373896898875  0.8556638552845279
  0.4879291065061477  0.1765779976178703  0.5021556604908424
  0.5020189603276222  0.1748216595641117  0.1580283703970306
  0.1517633633680373  0.8238382865112877  0.8476540598415379
  0.1662631724505038  0.8417177771296381  0.4994351623995047
  0.1525708246264668  0.8188193912125847  0.1613724045294674
  0.1669561004842299  0.5027172455879461  0.8420322558180970
  0.1801802547850848  0.5071951748391106  0.5001041837986646
  0.1675552744299012  0.4968127724323458  0.1743915710784738
  0.1600713743406017  0.1704273731698710  0.8462501877666649
  0.1499740297051825  0.1622823260936437  0.5014001217706533
  0.1771840915375062  0.1662266475205250  0.1706244441695212
  0.6572709528679217  0.8594769451096644  0.8192091727635208
  0.8257156425455574  0.6732367315538815  0.8334943686879270
  0.8349178142819250  0.8124427772063335  0.6732929538123713
  0.6596844500957296  0.8619289034769096  0.5101084119912355
  0.8288866217932314  0.6782403638530394  0.5018052187824533
  0.9009119474239259  0.8295904535547161  0.3247157807351269
  0.6838508795373270  0.8036940420612272  0.1728740969433261
  0.8255030131725840  0.6491864547533848  0.1777028120288640
  0.8259154785289918  0.8426427877758109  0.9959661341134446
  0.6818274187488237  0.5123576314014398  0.8123140216268347
  0.8520267865784108  0.3293015346088543  0.8424874737673954
  0.8173550815108986  0.5080752466802567  0.6661571978844470
  0.6639716120952849  0.4997796242431322  0.5151976709324040
  0.8229935655232324  0.3461624325559691  0.5155146716921875
  0.8625346937559709  0.4908137658445496  0.3309412019779792
  0.6389667298139535  0.5291435706120616  0.1633778189464926
  0.8194246956667269  0.3278685130388290  0.1639168923011169
  0.8311750191043429  0.5136993583720637  0.0081288969715027
  0.6688311973058975  0.1625044897806567  0.8393317170338567
  0.8160278078316211  0.9908020821297326  0.8207006552654909
  0.8804115933080854  0.1410413116457650  0.6643102939686659
  0.6768596565228673  0.1957719482832540  0.5138626240544191
  0.8333082763245875  0.9835274827536087  0.5296070356090778
  0.9916159456650685  0.1944678322584587  0.1683997911363507
  0.6598486184330122  0.1902668029685381  0.1684024530520539
  0.8055364187013141  0.1342000263469960  0.3326504554999845
  0.8382319499391255  0.0907763169375255  0.0544337973901844
  0.3249645016744787  0.8251577869918580  0.8519434080532295
  0.5071313364378629  0.6552147727779734  0.8062047732677879
  0.4918089447963566  0.8701467939269607  0.6726702072367657
  0.3285209829955444  0.8656127518976277  0.4611146692762773
  0.4657608749572547  0.6866277262290745  0.5103846439432156
  0.4902821995023340  0.8920487529347176  0.3291796008209293
  0.3419697705934183  0.8196222978623965  0.1680535194251849
  0.5191444101859509  0.6683950004090499  0.2050015369089433
  0.4908640153284961  0.8448068139076054  0.9932588273073154
  0.3479563481603649  0.5258411757237421  0.8867631277794602
  0.5270180127099231  0.3493296466605190  0.8711652329233527
  0.4697616431669366  0.4564683326956960  0.6468390987095005
  0.3299174057549893  0.5606434462382913  0.5018550968074920
  0.4801558268279922  0.3240061037175967  0.4689476244486757
  0.4873041737184059  0.5002733033318678  0.3382127054854123
  0.3345303538482837  0.5239025723544605  0.1784604559903696
  0.4756610961317051  0.3439516457757010  0.1505817270062228
  0.5364428137155181  0.5197275549404224  0.9857742832469643
  0.3335448984850793  0.1445278240571122  0.8331194737919380
  0.4676830007646932  0.0085583920928514  0.8550896102300235
  0.4887224181138052  0.2021095141116237  0.6776604388652355
  0.3364225811804859  0.2119094124402575  0.5068929797634542
  0.4950834452372316  0.0295901045623854  0.4814225152678813
  0.5167245162633735  0.1682381853558027  0.3246528866507943
  0.1618942805296443  0.1826264773766060  0.3159654869017380
  0.4983763260542169  0.0081884503337338  0.1754634830345924
  0.5337594812304997  0.1652157875625869  0.9993127651635241
  0.9896810861739493  0.8199282056198582  0.8519974965609013
  0.1579897663820806  0.6719983233494092  0.8053233249227040
  0.1645303058131546  0.8207690066133684  0.6619041246000561
  0.0142895403818828  0.8138343417165863  0.5196741022234008
  0.1862318519203854  0.6830802326690142  0.5090721474385638
  0.1600473766138633  0.8201852070021195  0.3151301514385689
  0.9906229653192050  0.8325886410727915  0.1621538336693093
  0.1464071031483539  0.6567810318320916  0.1647128455817726
  0.1469969047216254  0.8347606023449328  0.0103623770892079
  0.9723173227455509  0.5001076370344179  0.8564133211932269
  0.1961930036367864  0.3395665495695153  0.8308518050107125
  0.2045039902869809  0.4700438193839585  0.6674430549893620
  0.0207601640403388  0.5385154976722828  0.4772283887403544
  0.1345430258301756  0.3346213984450070  0.4792473556483552
  0.1828824939565422  0.5017391990547595  0.3524374566927870
  0.9803155241792714  0.4878286955992929  0.1567394465223131
  0.1641432450514802  0.1774557010625353  0.0088331495334888
  0.1590021749069486  0.5086083180728583  0.0107982177091766
  0.9839962957088345  0.1821963198960568  0.8546873471969191
  0.1411024010982214  0.9814161888682534  0.7868091850182277
  0.1279867983027522  0.1785449407741057  0.6790404650336572
  0.9968842901622392  0.1482783317052868  0.4891783052489453
  0.1596869754946304  0.0031816826293518  0.5008219496313853
  0.1768075367397097  0.3307648999936252  0.1491903446803147
  0.1662264623050462  0.0028270285405760  0.1485869298879528
  0.3465691155889749  0.1730445524950570  0.1434914361936545
