Cl O  Li
 1.0000000000000000
    11.7780000000000005    0.0000000000000000    0.0000000000000000
     0.0000000000000000   11.7780000000000005    0.0000000000000000
     0.0000000000000000    0.0000000000000000   11.7780000000000005
 Cl  O   Li 
  27  27  80
Direct
  0.6693279144239387  0.6649542989391138  0.6687258610248711
  0.6780862850966093  0.6381026746836412  0.3361860316858633
  0.6639187397734714  0.6884989534549443  0.0021101820984508
  0.6692949593002524  0.3105641092473102  0.6567269166848501
  0.6628032857589689  0.3401402598924090  0.3321960730806338
  0.6786071298954108  0.3486830862425908  0.9820573094231043
  0.6794117369324398  0.9873654266704520  0.6765935526789929
  0.6742392804738571  0.0045661597811376  0.3518065174007140
  0.6434429603014612  0.0265898792918556  0.9994738634934012
  0.3361520390521621  0.6709653296936605  0.6472587962906258
  0.3175771305473748  0.6813404852120470  0.3629141349556272
  0.3381477268494507  0.6649233680859242  0.9904342613555256
  0.3293105310836384  0.3287908837120747  0.6577937072366120
  0.3252211200689061  0.3336314205373134  0.3331124198490809
  0.3358849365601222  0.3317933626836030  0.9949157716677156
  0.3215409153350819  0.9813218190777683  0.6779473847871873
  0.3189623793336779  0.9936691005174462  0.3346010481296506
  0.3302123638326241  0.9905594528703154  0.9931335748235309
  0.0120705708465231  0.6450579871394895  0.6774918429546094
  0.9751989923470584  0.6747411609657490  0.3285285200374141
  0.0340121574795909  0.6740124235869362  0.0025342047742259
  0.9968753638040323  0.3023019277587912  0.6700495719880745
  0.0000218566731863  0.3116529845901912  0.3463495699665246
  0.0168941733838878  0.3091452170853519  0.0183282640931545
  0.0000770014981823  0.0104664686327755  0.6478328389180805
  0.9834535625785098  0.9991442917685601  0.3409624193790615
  0.9942409253588160  0.0145055170627190  0.0078891732562987
  0.8494383130324284  0.8395166579410627  0.8280235605798795
  0.8383581041000404  0.8318294502444267  0.5033573742502536
  0.8325543586443562  0.8281096507796872  0.1510524564465701
  0.8286974755815798  0.5213272870072746  0.8355510938197352
  0.8336025259075484  0.5010676591389021  0.5325417273407158
  0.8333404233636353  0.4876449643877306  0.1524107318285046
  0.8334936201548258  0.1590511062560590  0.8312523529929389
  0.8225767293661120  0.1734933653283043  0.5002866368775765
  0.8302369737797316  0.1714193180200884  0.1532261687126911
  0.4938631356345602  0.8330444983673673  0.8357110921597948
  0.5109739702599029  0.8320728485289501  0.4914604936286763
  0.5025112240505707  0.8481836125581023  0.1757475747351436
  0.5140356793861647  0.4961729730778767  0.8167891022356429
  0.5129240310001958  0.4921965770849751  0.4906524858172128
  0.5122042004115686  0.5185578825407365  0.1811750892763110
  0.4728401553618814  0.1666461691596849  0.8149636151017169
  0.5044969929224253  0.1562787159905383  0.4783315610119863
  0.4920341667553800  0.1787583309485865  0.1612409742251606
  0.1739603411815439  0.8446029209618958  0.8214017669310677
  0.1489074938107931  0.8380118962246342  0.5001739254963201
  0.1773332414112636  0.8291303689349441  0.1680241123539119
  0.1625074539293607  0.5209942135397472  0.8400058654164174
  0.1613389539064919  0.5149122523469962  0.5015814817434969
  0.1709226601460780  0.5083439399247074  0.1655388749797009
  0.1705413685553191  0.1670710837796476  0.8341419586415710
  0.1562382983224271  0.1624900381893812  0.5066038183020444
  0.1750820704345863  0.1515841695535218  0.1908002930610794
  0.6791932776604358  0.8503797031345641  0.8112553134933987
  0.7949656797910964  0.6854737216830331  0.8422796879799529
  0.8440994210536067  0.8050080281047648  0.6541080369724468
  0.6592644965620443  0.8315730966287244  0.4772452564926362
  0.8386781817509790  0.6651903288790293  0.4771574031530792
  0.8400236738647269  0.8292189510118799  0.3200356324403859
  0.6636695520753275  0.8161405441867876  0.1832174365085486
  0.8630054597262445  0.6473080852528035  0.1653240695159434
  0.8223913061886141  0.8397189230490931  0.0016935747366851
  0.6476804871884373  0.4716916886032222  0.7915832098939890
  0.8314536413190695  0.3474644754035763  0.8287376422402959
  0.8364638727400467  0.5145921342106476  0.6856335398631647
  0.6718719366133739  0.5174902822807759  0.4937438707489562
  0.8330870656682682  0.3491828381428166  0.5082696309791905
  0.8984699500910849  0.4728405430809204  0.2845563041728048
  0.6606403527332426  0.5124191203178481  0.2128123926265617
  0.8472508863336923  0.1521872705839567  0.9982834138548202
  0.8352914962391766  0.4774558798134010  0.9950013236647517
  0.6741569736354610  0.1425206907102357  0.8466887110634096
  0.8589012108087712  0.0108426906911091  0.8147470181585698
  0.8062968172942555  0.1521014010294866  0.6633462812090657
  0.6574487259265025  0.1443922401193140  0.5033946208273929
  0.8155091103831066  0.0110102142567399  0.4772140422415769
  0.8484224531263633  0.1668552155738793  0.3398976935832062
  0.6375949642927189  0.2001689590213838  0.1434236590751166
  0.8007788178618855  0.0008021904178677  0.1583411460105201
  0.0155076022530041  0.1906294021213308  0.1831955339017743
  0.3322432132084405  0.8280382345165634  0.7924627149393959
  0.5094103427574305  0.6801317528130564  0.8543651496410030
  0.5166390936719731  0.8182080531012992  0.6594932442602331
  0.3474898364052553  0.8231339938987937  0.5140099762829181
  0.5063427632467281  0.6643022004413064  0.4758038544427545
  0.4862332552783911  0.8811549304083846  0.3306506235272217
  0.3351925753221353  0.8443804131488983  0.1521404006250225
  0.5013842316942367  0.6795677100818553  0.1986555961797613
  0.5209031385024560  0.8208943410212426  0.9936060053978965
  0.3467960784206255  0.5144323787830480  0.8284823412452519
  0.5037066772351029  0.3360885003089152  0.8169333112658278
  0.5044937945750405  0.4992771918845692  0.6533637936816293
  0.3268744632397924  0.4604645581181837  0.4947472206633515
  0.5195695490992287  0.3451401270484432  0.4479463701774706
  0.4702151218671682  0.5140192656600809  0.3405999130185122
  0.3178388889653033  0.5349307086283916  0.1641383834365576
  0.5166822106335528  0.3565368104302854  0.1480502912369687
  0.4996565977961215  0.5466818417742064  0.0248566098248240
  0.3154982857180817  0.1884244857255031  0.8159551837618214
  0.4834966439938996  0.9991259867490823  0.8468406932923019
  0.5026490768713959  0.1961131711396015  0.6478508144400913
  0.3449231423862570  0.1768931073848103  0.4723165222018561
  0.4904366529647928  0.9858014525116570  0.4958155496606910
  0.5025963243822519  0.1783897922619569  0.3108282988142517
  0.3351271306569770  0.1687531513488822  0.1976869827470894
  0.4937950796604612  0.0209807851567959  0.1388995157285124
  0.4909335304009133  0.1909658358778827  0.0000425125074686
  0.0041063610262418  0.8445263225663008  0.8558373610878444
  0.1640052420339280  0.6782810432687417  0.8322241647729958
  0.1583702195241437  0.8319649953968858  0.6607772390362913
  0.9988206226742294  0.8431881987971609  0.5326348032981540
  0.1646003471959009  0.6666942808872590  0.5022981949555592
  0.1446521128580361  0.8350243968547816  0.3196321953303933
  0.0006042881424741  0.8099218232792793  0.1341032901844465
  0.1308495738695110  0.6493888733817734  0.1972684648218962
  0.1829047423128614  0.8421227847493366  0.0048649017477043
  0.0157368195004415  0.5487820628999447  0.8415121655784233
  0.1593689945872165  0.3391264647422507  0.8183788023421128
  0.1622003822163635  0.5268083637457847  0.6723726652954998
  0.9977517623849577  0.5023989003883532  0.5363181658939530
  0.1413079977547794  0.3187328099242916  0.5071788730647476
  0.1627500323843330  0.5124336950654244  0.3503305408107487
  0.8175427231310634  0.3223959905432384  0.1444223835314269
  0.1696549809902232  0.3500925453040346  0.1561878889977683
  0.1560023898387414  0.5112008738475229  0.0148467465692579
  0.9964408544582075  0.1749105773457503  0.8047536805412712
  0.1942568917437762  0.0055365001695771  0.8380190844093144
  0.2061536509091237  0.1372116162358304  0.6615360165892750
  0.9695177253777769  0.1548822932310934  0.5289359347903504
  0.1513147967708811  0.9905187137939846  0.4747432176733025
  0.1279312235798256  0.1507075288508675  0.3411528627473912
  0.1474800288632812  0.1495285937135883  0.9831305599280888
  0.1854476916389334  0.9958826403055899  0.1712543419990241
