Cl O  Li
 1.0000000000000000
    11.7780000000000005    0.0000000000000000    0.0000000000000000
     0.0000000000000000   11.7780000000000005    0.0000000000000000
     0.0000000000000000    0.0000000000000000   11.7780000000000005
 Cl  O   Li 
  27  27  80
Direct
  0.6723877138298530  0.6547810065659505  0.6946482695321672
  0.6422992810501539  0.6553537941456973  0.3474387543306094
  0.6846394895549123  0.6760400977493648  0.0316819188886508
  0.6534703392424337  0.3570566459851305  0.6644195548070464
  0.6743812154150052  0.3208952600163906  0.3311514536714401
  0.6479465099110332  0.3277660186935915  0.9859926434089334
  0.6708531953371231  0.9925556939074374  0.6818748797855178
  0.6368532646766466  0.9958915145623338  0.3472375013578273
  0.6524506332224250  0.9980625054498057  0.9742091497688907
  0.3128535896507650  0.6729346238949642  0.6773589752198352
  0.3528309481755428  0.6574234487869354  0.3483202026756934
  0.3475333918002638  0.6902950915579601  0.9848337143900069
  0.3615521127564842  0.3679409865042574  0.6527445747173176
  0.3282057987966878  0.3368656813720061  0.3190603645384091
  0.3528416768091754  0.3435313612051863  0.9950154141725308
  0.3293257264489882  0.0000954533061913  0.6656239957525840
  0.3247127581129887  0.0072681557685049  0.3183245422128579
  0.3375956001653946  0.9955649687345737  0.9987330025961911
  0.9881385007414463  0.6574636103135900  0.6677788316963235
  0.9976562008971032  0.6647787975783419  0.2950634272655006
  0.0077824480034157  0.6698909712615330  0.9984774090308018
  0.9939760426582420  0.3540544504114717  0.6485989497108917
  0.0010792890787449  0.3226591283563968  0.3210777727581273
  0.9761108737536559  0.3359363590296752  0.0058400393445894
  0.0320950601389325  0.9768317951713399  0.6647350171212525
  0.0140000973127298  0.9875809068302729  0.3523063151669790
  0.9810072779142656  0.0196230503630041  0.9857626976670296
  0.8176898500831231  0.8318121658656771  0.8365986996678179
  0.8220883469599970  0.8272158572758653  0.4904424933765142
  0.8386639644660115  0.8348934294449368  0.1813793840354675
  0.8377619495326811  0.4949655795887058  0.8468275814001127
  0.8354192208014382  0.4999860133329864  0.5051090618624989
  0.8210864950057692  0.4772372614910493  0.1544313032908269
  0.8275918526156105  0.1826285366025231  0.8210607232184127
  0.8349484564547252  0.1604182305913562  0.4935521777135478
  0.8387210488940186  0.1661338595523191  0.1701812208612368
  0.5106235216454332  0.8355490501734089  0.8356090743073902
  0.4997248088057797  0.8261182978125535  0.5072883914792483
  0.4883115668912745  0.8207083134538876  0.1864645539502325
  0.5139633250525319  0.5125328872110548  0.8372581260248235
  0.5179896800412921  0.4866661920084575  0.4997704532815468
  0.4958593428360975  0.5000187660296231  0.1728197764828679
  0.4962101893985858  0.1718099039037191  0.8305420823416855
  0.5094598899931092  0.1588702709425281  0.5064702623153012
  0.5082978372717724  0.1497375924123124  0.1715482714557745
  0.1597824550514398  0.8489115026345982  0.8415257740567905
  0.1855743433378315  0.8122251625979487  0.4947273881931131
  0.1646447730272230  0.8314696592976349  0.1622495723807717
  0.1576700680600163  0.5045343871974360  0.8186388050253386
  0.1552301439808740  0.4894409405491068  0.4986220036579478
  0.1850594903797003  0.5197640672501935  0.1560670454297444
  0.1642872666148004  0.1857056909126747  0.8206723061955057
  0.1638115832907804  0.1746194496542067  0.5150443838873621
  0.1749494940536767  0.1568855546913317  0.1867897125201178
  0.6641251679726446  0.8311513630047337  0.8136829859953129
  0.8482832978663395  0.6818993082166587  0.8626021545851725
  0.8327745518829067  0.8308801107581755  0.6501339135431310
  0.6758298238678551  0.8721046223359716  0.5109711872793082
  0.8178787550058754  0.6625694682728315  0.4945962964357467
  0.8498468443979923  0.8718404955215620  0.3369120011947248
  0.6668149781232523  0.8352169078703100  0.1939928159274673
  0.8481936631687456  0.6567002983946937  0.1433594343528855
  0.8369066547624148  0.8440369783077200  0.9974154120464638
  0.6853140574552332  0.5154486464345043  0.8599256641344332
  0.8400662171244871  0.3344814146101707  0.8450431464718600
  0.8215946678712615  0.5019588268736622  0.6809493833144258
  0.6719540341186395  0.4936723946245927  0.5102602634808665
  0.8142953913726136  0.3306867576224630  0.5031916728480228
  0.7933690497734474  0.4751614530675012  0.3501358113695953
  0.6640826178068040  0.4959588081506176  0.1613381850750416
  0.8350101562194646  0.3364433780609842  0.2253243937046012
  0.8279708770234130  0.4713702373396380  0.0022371195187219
  0.6571634183366168  0.1481846024513000  0.8192233333739662
  0.8282881206956562  0.0007892105396269  0.8210070395648403
  0.8390046896760166  0.1775584879883683  0.6712868114962880
  0.6642074343256306  0.1578816678387013  0.5254477172510628
  0.8887283033612655  0.9979005043471239  0.5047459482208005
  0.8226910937430951  0.1701900118027908  0.3354395063500139
  0.6742770869406549  0.1525419560303284  0.1615819173641970
  0.8415340561470556  0.9989135483031524  0.1789635993819983
  0.8407776267478480  0.1856831607820465  0.0116533741491674
  0.3430143698580163  0.8440798118714303  0.8496856084289963
  0.5192602741466621  0.6756403043262661  0.8482822221790429
  0.4698919199335843  0.8351037106641342  0.6796099235267579
  0.3500087507344509  0.8099307734461668  0.5166863506580570
  0.5327838990247991  0.6802985151078668  0.4931935984377620
  0.5001556950237078  0.8287158417139215  0.3439492358775746
  0.3478709186628838  0.8567079399672363  0.1711832752425142
  0.5042581220977339  0.6508850955679979  0.1974743587547451
  0.5320634206696129  0.8016853529173603  0.0320030238568664
  0.3328415401757751  0.5349047198865060  0.8239887900064824
  0.4967224917758912  0.3653927133467791  0.8239865228235259
  0.5085547576832138  0.5237024879285769  0.6759267633580085
  0.3706471600981662  0.4937841748414206  0.5066414751139124
  0.5053182325568568  0.3256403524877097  0.5044484614286052
  0.4761552557628398  0.5003098156416389  0.3348590062996746
  0.3461002082885987  0.4949338390273176  0.1302097934490142
  0.4644374825948108  0.3134535963310047  0.1864989665486765
  0.5078948050158789  0.4781978588125543  0.0002459052010849
  0.3180359447920768  0.1784262117794847  0.8273089175043530
  0.4966034241852751  0.9861893726840774  0.8494870679786798
  0.5134538566539220  0.1978502005441136  0.6790146260590878
  0.3193043526853103  0.2187839712160028  0.5231873358436254
  0.4832251419288014  0.9801621755992765  0.5417755640482810
  0.5209900132860940  0.1234005073530439  0.3379686299085934
  0.3529569792566675  0.1413405641446555  0.1721841757896085
  0.5149440031373642  0.9885446177328355  0.1642320922984792
  0.5269563481480735  0.1546858406706805  0.9900892266670694
  0.9940693216753146  0.8591499389236376  0.8202151449465304
  0.1705369791036133  0.6670096246365275  0.8378702654230263
  0.1853597504224761  0.8463263472686701  0.6898240280844268
  0.0270035137721028  0.8082247182715462  0.5034695647018100
  0.1688088695019312  0.6467782150988790  0.5040002474552255
  0.2304127445479796  0.8156326576104570  0.3245748417401148
  0.9965256980129189  0.8136879004588654  0.1768382773021009
  0.1793180317271995  0.6670520533461383  0.1440361277372280
  0.1689865700874842  0.8240142710582816  0.0201369134120080
  0.9963870054361296  0.5291724716647651  0.8243096773656194
  0.1779854342165156  0.3531218689936411  0.8007377761689035
  0.1314488623653316  0.5207611014406391  0.6539555338138546
  0.9899267868443190  0.4889569374733452  0.4774905629720557
  0.1369385118893952  0.3289089420587344  0.5025321655201973
  0.1832504403222076  0.4767625295741627  0.3270904634144813
  0.9975263252834962  0.4942350203664461  0.1549336563786410
  0.1424187687983541  0.2903105975671298  0.1041510759470997
  0.1816248498998311  0.4961018026185046  0.9811832525156247
  0.0060555561269544  0.2091854473163809  0.8423425267167999
  0.1626882042572831  0.0156114598971793  0.8525391010919675
  0.1715525454904562  0.1623411155002309  0.6769788577059644
  0.9874324301315203  0.2033119657420852  0.5086019406045583
  0.1627289427010293  0.9777055664705652  0.5081120671443565
  0.1540890323378256  0.1729405601896520  0.3338708586567095
  0.9916085874628816  0.1428549209032383  0.1527817758698269
  0.1702136221344701  0.9889585228516342  0.1764152654964051
