Cl O  Li
 1.0000000000000000
    11.7780000000000005    0.0000000000000000    0.0000000000000000
     0.0000000000000000   11.7780000000000005    0.0000000000000000
     0.0000000000000000    0.0000000000000000   11.7780000000000005
 Cl  O   Li 
  27  27  80
Direct
  0.6855875777428369  0.6869415552393099  0.7021371338929973
  0.6654334548527522  0.6459039647991794  0.3398989082135949
  0.6657606174504292  0.6782258157032999  0.9963812284450342
  0.6615137384337584  0.3361946880728804  0.6756056682592831
  0.6828774034310322  0.2954662239803013  0.3266604220776233
  0.6749833962604533  0.3489489484633359  0.0086097003885843
  0.6478918149803015  0.0072902790132953  0.6954640047443893
  0.6568492524136178  0.9649189751833697  0.3552824328241016
  0.6487175149159062  0.0157888813789695  0.9718293867570480
  0.3231736858697304  0.6703347639676462  0.6642991458853639
  0.3287282841126807  0.6767114994301271  0.3387874420119707
  0.3242691805771356  0.6753715538175401  0.9975611600610945
  0.3297016950664298  0.3446548634586819  0.6434977827466640
  0.3582304071857151  0.3393467403914101  0.3414233863246611
  0.3435997897437517  0.3468233025001591  0.9994473413085030
  0.3290610336969286  0.0104956379650175  0.6569544042713601
  0.3320225819190135  0.9973111498771302  0.3552342551862801
  0.3367711966209970  0.9825788134752919  0.0084293258682221
  0.0157719383410751  0.6730576911835798  0.6592843396130641
  0.9912310935025624  0.6576185396198237  0.3286161507753070
  0.9951649994251537  0.6583557789347226  0.9836507393160552
  0.9875979543229557  0.3160932367011202  0.6599411344184241
  0.0006168739663125  0.3171501892982682  0.3307414323697944
  0.0125555407893006  0.3427376768712554  0.9974298706210624
  0.0170011614181687  0.9974244241004722  0.6644885366330353
  0.0082710388076950  0.0090496711851658  0.3363083584200697
  0.0147651269241304  0.9971193135576649  0.9952484979144266
  0.8344044953449404  0.8322443392591390  0.8388970105918249
  0.8327926092338266  0.8126453523100703  0.4997714196188466
  0.8312221801824852  0.8287593551720168  0.1608463123958618
  0.8206184035542011  0.4990797390740291  0.8191185113351085
  0.8355742807795746  0.5111634193770420  0.5015375146563992
  0.8371205805265953  0.5004442593304460  0.1414708555163913
  0.8431874811468512  0.1700034365548784  0.8179901019894269
  0.8247287252831644  0.1495573834951121  0.4933322151688375
  0.8353980882755419  0.1690867861458568  0.1594498693937119
  0.4922619721090875  0.8220337569321343  0.8353308937431947
  0.4838623831392523  0.8376293846052857  0.5216520428155681
  0.5055640203386554  0.8397789979311433  0.1702946759100383
  0.5039197054141844  0.5225222489005961  0.8276437670173787
  0.5155973170555591  0.5041033711656945  0.5137610315653244
  0.5080629417814243  0.5135598317618577  0.1557613651508513
  0.4748051896558586  0.1725270136122969  0.8428006138176648
  0.5048307890793402  0.1644471986528258  0.4982514758736930
  0.5064376954850320  0.1620989942698890  0.1674423876880128
  0.1731210118575049  0.8224855741069982  0.8421909035440583
  0.1522782827512049  0.8446957080551729  0.4925401181234780
  0.1460347645301120  0.8249668439110358  0.1594800310241128
  0.1689190311604509  0.4912943137728933  0.8285296687575554
  0.1627725564669699  0.5133602386908829  0.4935980828558743
  0.1757724013540853  0.5165672904388079  0.1851584893132218
  0.1730323285670445  0.1489860331474180  0.8433240091972921
  0.1680360848551994  0.1619120832535760  0.5033709369306723
  0.1514963273010339  0.1721328679038841  0.1532435066575860
  0.6707491486916819  0.8560413393350883  0.8272687101797498
  0.8293275439683919  0.6647714613615600  0.8334354478209030
  0.8382547388004875  0.8376154576242684  0.6769912004434557
  0.6595115324854703  0.8750976598494015  0.5268313817938399
  0.7893158133305802  0.6704017673210869  0.4981683593270983
  0.8017920401683136  0.8456637951775157  0.3418157709177418
  0.6716605157547070  0.8626208662159288  0.1858846153830938
  0.8439507930657474  0.6619452963502944  0.1611854991602892
  0.8482001416924244  0.8179290221897418  0.9883521303176886
  0.6577657611237047  0.4770979023524725  0.8352823112512738
  0.8284771884181376  0.3166718541798976  0.7965509721880361
  0.8529973388863287  0.5125832427034288  0.6719253825546391
  0.6839439510703347  0.4873505490203985  0.4994610584662923
  0.8514622940832695  0.3273390916882532  0.4563237732107526
  0.8360750043296390  0.4781754620232768  0.3038706382727180
  0.6853908186505573  0.5246548178688715  0.1151711688545494
  0.8151302013835426  0.3186099717242600  0.1529579428186162
  0.8341484656125178  0.4626203602454696  0.9818172487226530
  0.6388078606409414  0.1530498067763097  0.8224342664087062
  0.8684592837358776  0.0028805721059615  0.8283337193734747
  0.8484462120140035  0.1758313113148835  0.6475978211815042
  0.6727939857766303  0.1735187846994511  0.4966395492771691
  0.8651173750874624  0.9944796490153522  0.4649479752349018
  0.8486679910896220  0.1425003615681571  0.3149658672921914
  0.6450507108527703  0.1308769700120367  0.1511989630918595
  0.8896639220429304  0.0119734503152895  0.1347549636535405
  0.8393718932022076  0.1717031557628442  0.9840834524381066
  0.3393511900971586  0.8070756934946244  0.8108693661485882
  0.5345158657198665  0.6756598504216803  0.8392982210042712
  0.4860821171951160  0.8201950715545699  0.6780284366459659
  0.3302647863904974  0.8074625720719540  0.5303543411954801
  0.4730576369360557  0.6647349435217995  0.4994553905089015
  0.4948370870933521  0.8345045587249366  0.3282318025360982
  0.3483530197824676  0.8143825002795201  0.1443667465249157
  0.5079007572292285  0.6660124606322682  0.1684116185231862
  0.5050703007645099  0.8341994606756736  0.9860215459442567
  0.3447693727513361  0.5269798949613834  0.8192432873685250
  0.4693177567079888  0.3419224221714137  0.8409745598880001
  0.5320524904670199  0.5068253267317898  0.6842093846660058
  0.3353055640532698  0.5114809869325646  0.4968722594134700
  0.4879240009200650  0.3346729224842798  0.5277281336238788
  0.5434225344491256  0.4793758949132311  0.3115387773412749
  0.3372471026147716  0.4908931843312669  0.1553387379565499
  0.4741005815813666  0.3076536481462702  0.1685139960035569
  0.5048218418037448  0.4971133627135327  0.0025003115957720
  0.3318833728369553  0.1909313368423271  0.8486671926295670
  0.4716060730482806  0.0006299862699746  0.8328311625922273
  0.4829635665533068  0.1613709552643977  0.7028649805927915
  0.3389438866305172  0.1616896260473410  0.4968064301369173
  0.4895633361391143  0.0177567164793925  0.5474081723636357
  0.5261584220617725  0.1527989186909484  0.3412756955492218
  0.1954409422374208  0.1189922451347921  0.0041278731515447
  0.4456817671073471  0.0062626448113694  0.1776412393674891
  0.4974911081415782  0.1515015333655546  0.0023883665906739
  0.0194072422249442  0.8541809537777995  0.8560747271143785
  0.1252300411023876  0.6637121606106359  0.8455005048353461
  0.1762949870255138  0.8359630051324006  0.6643658253555252
  0.0081300907507632  0.8091773720951204  0.5167269117262723
  0.1457925200797717  0.6704704710617451  0.4589690898958427
  0.1547032474713766  0.8629319561058619  0.3460289660733476
  0.9865727043321242  0.8203395234972146  0.2060874422213289
  0.1827370861823332  0.6773947312081740  0.1704783379722040
  0.1548832860893533  0.8012741342510764  0.0140490018773033
  0.0192042547053803  0.5091283797612975  0.8054367099603592
  0.1396021490805697  0.3209915462063349  0.8316364381450739
  0.1790232178301489  0.4884549100325793  0.6570043632672188
  0.9823049310484202  0.5022082086412721  0.4562270535664201
  0.1500235085730434  0.3042469223565505  0.5118059911196097
  0.1568484175234942  0.4856387044321576  0.3252422788957488
  0.0003489025798839  0.5105846399566250  0.1614435734059138
  0.1756956207741453  0.3601689535162260  0.1766513103664869
  0.1823591953660089  0.5104333054942916  0.9871384447818263
  0.0149533271477160  0.1878495064673281  0.8534439042060445
  0.1747821889552135  0.9806097005541179  0.8494074278648008
  0.1838679651380207  0.1522170421366714  0.6805855356228097
  0.9889576694672811  0.1437236990787815  0.5168548861070738
  0.1717126054167195  0.0138099089953075  0.4867278707317074
  0.2367646430695551  0.1795444104442790  0.2795548176684640
  0.0025401743646139  0.1882792793364829  0.1663173993594707
  0.1465885138458373  0.9871146102941117  0.1694726196613276
