Cl O  Li
 1.0000000000000000
    11.7780000000000005    0.0000000000000000    0.0000000000000000
     0.0000000000000000   11.7780000000000005    0.0000000000000000
     0.0000000000000000    0.0000000000000000   11.7780000000000005
 Cl  O   Li 
  27  27  80
Direct
  0.6640563435262188  0.6583959107094038  0.6604063389797010
  0.6571405448304660  0.6604515169133949  0.3503547783551148
  0.6582514239936462  0.6642757282503543  0.9933947095812032
  0.6539963669241687  0.3105530012694282  0.6602879596410539
  0.6445502301075385  0.3474880026938928  0.3423165621543509
  0.6583400060705820  0.3393138567292752  0.0173954505848919
  0.6575097312836545  0.0218950091780282  0.6547546567237289
  0.6468409350870165  0.9805247792233582  0.3093883410229433
  0.6819774126605714  0.0154225016828412  0.0062556971032591
  0.3174946556117206  0.6426738875864386  0.6508652233913657
  0.3605277516647950  0.6345991940313240  0.3371557047657140
  0.3516878433765172  0.6793869884790547  0.0069029436777199
  0.3462978588103587  0.3275312259345318  0.6812175805584250
  0.3408863764915252  0.3316039974457814  0.3469483359632646
  0.3463861574894249  0.3485962907908371  0.0038529142759318
  0.3545127533400749  0.0034298139201163  0.6669821007174177
  0.3287746397994279  0.9961459158676905  0.3205667473171261
  0.3370316593981805  0.0067444186387460  0.9702995538179334
  0.0234362615521185  0.6322413642421755  0.6737443382532905
  0.9957990005208014  0.6780234803578862  0.3490711074623361
  0.9809151528492536  0.6788958599711449  0.0073663871236646
  0.0229955753346483  0.3399964204980582  0.6638010001172603
  0.9911838867743676  0.3210106458105553  0.3395842828087223
  0.9800346091000478  0.3413514266831406  0.9863213094081763
  0.0008202805841101  0.0142774325909717  0.6579018305503614
  0.9936381186504145  0.0075481710540748  0.3119899739507146
  0.0128601073599310  0.9964520216241101  0.9783146541147940
  0.8271993068313521  0.8504999500692132  0.8332121170154315
  0.8113661107727081  0.8548254922373859  0.5103644948146329
  0.8549927836635305  0.8392309981557130  0.1630238068848890
  0.8421887869469711  0.5113842780216689  0.8567926011190538
  0.8459171693186165  0.5051825205009228  0.4932505428127255
  0.8374897263867469  0.4957373148487213  0.1947813721453488
  0.8237590186367971  0.1712064510018000  0.8401169036796821
  0.8332995674293936  0.1843188250858270  0.4936772590334302
  0.8078689810626057  0.1722204890644179  0.1836190183162048
  0.5007649202228572  0.8354477985390165  0.8205506289418401
  0.4912600795618227  0.8317125336476823  0.4992537193977449
  0.5059614250149408  0.8362467376186549  0.1573932984983124
  0.5089380742949313  0.5066284164313072  0.8318160991100859
  0.5057530870954202  0.5040703458046248  0.5016001323012921
  0.5175519525395472  0.5048148320079019  0.1619197798773402
  0.5143273706091208  0.1791224822353830  0.8539901200725994
  0.4962559386622732  0.1608161843041556  0.4960531048299994
  0.4797963928265396  0.1568649095081181  0.1795491415117655
  0.1368252142201568  0.8293340158140574  0.8161246019862111
  0.1514518134851842  0.8247147924822230  0.5082196182817373
  0.1788982999901702  0.8113925015476882  0.1710615777461437
  0.1743568693735242  0.5030843641310914  0.8433652100603298
  0.1634525897900048  0.4741551905794434  0.4767598232113425
  0.1617155531554323  0.4884331396154715  0.1714696706782788
  0.1854512886847989  0.1532912623732404  0.8145160356787118
  0.1654040675196454  0.1539814475204434  0.4988314160867229
  0.1698079287133355  0.1824538646772154  0.1812474234876786
  0.6753711249237644  0.8489221526732638  0.8536389496268317
  0.8596247194140840  0.6750012445063099  0.8229547335545431
  0.8304160345922513  0.8358202643104097  0.6616938155010134
  0.6559535530966100  0.8315368269685683  0.5574145329986578
  0.8222970095132592  0.6822812904352392  0.4504198940520262
  0.8411071787351730  0.8619116535381409  0.3573604141755110
  0.6593805215912967  0.8554401417310045  0.1850225260223881
  0.8616378159376442  0.6861839220112411  0.1704763206601372
  0.8467639621527969  0.8697582927790970  0.9733219895662211
  0.6819337693886623  0.5443866481813705  0.8530765263120279
  0.8151761927016005  0.3402230173374590  0.8274960629576642
  0.8520166202084591  0.5327534895201036  0.6682959737260071
  0.6764755669067649  0.5097264004848698  0.4904149851863551
  0.8040959837692127  0.3602975459116132  0.5200413579824771
  0.8613452683654607  0.5152614037894121  0.3470883749962264
  0.6782455485436714  0.4886470645215629  0.1662730545513177
  0.8336049083911161  0.3361583833936062  0.1514376821486129
  0.8454265671210358  0.5413987844428284  0.0076890014385693
  0.6774658805191615  0.1726839862800478  0.8355999464933414
  0.8602305430883368  0.0247101975825254  0.8231798324337763
  0.8319302698946045  0.2002584775298927  0.6680622109690478
  0.6542390364713132  0.1803138666362170  0.4893413526003144
  0.7941434554451275  0.0225307313275175  0.5272438743513826
  0.8387243694480954  0.1752821374625648  0.3338488159968917
  0.6449304285922290  0.1579837642970552  0.1477496434879666
  0.8146093159917041  0.9850663388872484  0.1653901082460663
  0.8521920839751133  0.1693058836751515  0.0093197632394804
  0.3398276425363401  0.8329896863894614  0.8666597861989979
  0.5292899684125434  0.6668985755329311  0.8514417254588915
  0.4718493902543571  0.8420949360544469  0.6727734171522524
  0.3203045252454877  0.8084565805900913  0.5144802415885275
  0.4988586646961129  0.6565713547399065  0.4626657993926448
  0.5157624974204627  0.8180178579125740  0.3504236845228225
  0.3472063109238686  0.8141038094509708  0.1761051489022016
  0.5094703359793340  0.6571017136100423  0.1385156198553334
  0.5004187294825111  0.8558526070874125  0.9869869085250279
  0.3249152668839407  0.5046106236001946  0.8023417490282663
  0.5404854393070134  0.3398973122145397  0.8484019999102239
  0.4999518922205618  0.4878425384553537  0.6685353234695370
  0.3362916265899961  0.4737719152035979  0.4986466406757839
  0.5218186694070858  0.3353055784760507  0.4923486088502149
  0.5134151533524870  0.5041724095230686  0.3443341120730037
  0.3146537943966490  0.5242762495340149  0.1840371313872986
  0.4949091510154076  0.3326713345505775  0.1690927317756414
  0.4850141929442486  0.4821604921419310  0.0154931512417996
  0.3564619638867592  0.1985919563580729  0.8441690073891602
  0.5325683959381821  0.0068037841665689  0.8332608614489923
  0.4780614715546361  0.1836351479682709  0.6775751891974791
  0.3309056095940111  0.1544446815809087  0.5046684810347831
  0.4495003913501086  0.9849660248976152  0.5002484459198242
  0.4937637782829635  0.1638841079408423  0.3401968675464342
  0.3235364552778172  0.1618793615330810  0.1596713214231285
  0.4938765301496298  0.9901170259866867  0.1855634920699268
  0.4865561202669965  0.1443624987315099  0.0044765417254955
  0.9947838956043732  0.8720530867849783  0.8161399864419858
  0.1957073361271596  0.6847168926968711  0.8222705301266580
  0.1638672008731393  0.8201120871976418  0.6606737046269054
  0.9894924234271057  0.8364166953695580  0.5177718268723946
  0.1478704032729516  0.6378555570085488  0.4786674957274344
  0.1604431169639104  0.8399607881551838  0.3462788692245953
  0.0106178431734391  0.8261268426099024  0.1680884709395226
  0.1181550739098521  0.6513635950038610  0.1582728339077769
  0.1621204781042401  0.8570160767980971  0.9928527307658318
  0.0164144821745110  0.4694884373763465  0.8255882284999325
  0.1771204641837367  0.3136710053582032  0.8227873668698757
  0.1781695221259476  0.4777489184776484  0.6228132877021685
  0.0035367422326336  0.4831923437849198  0.4813522856872104
  0.1488673969779873  0.3080586546779820  0.4459996969954276
  0.1991946076399430  0.4578676267651096  0.3357200516440430
  0.9999309456495420  0.4863686671067050  0.1461325853657336
  0.1972473606356405  0.3341112791257014  0.1721182064600122
  0.1884025131273508  0.4959529806274399  0.9986869130261876
  0.1330296969174880  0.1960477114988830  0.9968594880429331
  0.1538409992243267  0.9965022434588410  0.8055365336969814
  0.1586365668804811  0.1860349611275211  0.6600475977622755
  0.0036959311807865  0.1531708486427441  0.4535140724770551
  0.1539624554541288  0.0045968049125882  0.5072465109685628
  0.1520417263933332  0.1390949420449919  0.3192428541695780
  0.9776711012321561  0.1768847524148038  0.1737599708036574
  0.1902345993830958  0.0033952763862276  0.1687813180024287
