Cl O  Li
 1.0000000000000000
    11.7780000000000005    0.0000000000000000    0.0000000000000000
     0.0000000000000000   11.7780000000000005    0.0000000000000000
     0.0000000000000000    0.0000000000000000   11.7780000000000005
 Cl  O   Li 
  27  27  80
Direct
  0.6756329404924838  0.6705481345744717  0.6468941449801695
  0.6597103526487053  0.6878879141929912  0.3377449839003081
  0.6670361875762697  0.6497846657794699  0.0032815409150467
  0.6999328908160436  0.3384569038202380  0.6723766336424928
  0.6595463462530624  0.3406494519233307  0.3302667618897517
  0.6962470990956485  0.3201216284568502  0.0172460126871245
  0.6555258211633328  0.0089865542758611  0.6711479419364046
  0.6496343033389113  0.9806032657490590  0.3400151425342445
  0.6624130776450818  0.0035819361317650  0.9861153867725366
  0.3157326662659522  0.6527731772845710  0.6777256064883882
  0.3299970324469473  0.6877274300280126  0.3295469313011245
  0.3581165585280293  0.6751108402740379  0.9850215507017696
  0.3349692278252915  0.3177115927315917  0.6709387133378655
  0.3245859549822132  0.3543402815444953  0.3419657700702765
  0.3287480373077772  0.3429036390630482  0.0065865869651325
  0.3361239931728401  0.0134492496263688  0.6490542035417903
  0.3291716968800319  0.0134712876062326  0.3412616073352938
  0.3457189948417977  0.0136503545743708  0.9627840359647889
  0.9798054429204682  0.6530857246492618  0.6589142227041761
  0.9821203100986624  0.6953148816745710  0.3294173172612208
  0.9739873479173004  0.6779423088740049  0.0297797983912626
  0.9889556870579193  0.3229465789058177  0.6649014480376817
  0.0201619017631922  0.3395282084952075  0.3300345578210750
  0.9969585772081776  0.3409181131036531  0.9868215636566636
  0.9985013779720157  0.9825410050078722  0.6626794063134519
  0.0227604147840605  0.0091269254157013  0.3247650578348802
  0.9960106717463947  0.0207082646500063  0.0260250321840306
  0.8313449687458637  0.8274816076455617  0.8392755498834371
  0.8417187882457224  0.8508645229487056  0.5019476730531699
  0.8139756752635022  0.8280934231604848  0.1714879638338681
  0.8244950802974838  0.5219881778692191  0.8328516489183829
  0.8377402870115045  0.4975230875585383  0.4899530606520119
  0.8295493598444692  0.5132095240061717  0.1924165321305808
  0.8543046495735572  0.1688478638742517  0.8499390829767837
  0.8491354724331790  0.1687864373860293  0.4959841721698859
  0.8234339577031126  0.1354048201487704  0.1836984646834995
  0.4983091931351639  0.8331223588408516  0.8118168873914134
  0.4970544693104882  0.8100064853016326  0.4942423278928837
  0.4926593732080488  0.8249538605909199  0.1653159023613088
  0.5184060696556017  0.4868380162271068  0.8109184351741571
  0.4889600998461458  0.4977849067045818  0.4710832159358551
  0.4988244104619846  0.4937324791118241  0.1556638567497542
  0.5175283459682316  0.1716870753088685  0.8343693659659902
  0.4982822703375578  0.1464362137981303  0.5075357932155458
  0.5049623224912645  0.1477983555367136  0.1516153562417601
  0.1580238368665103  0.8225984194409575  0.8433908108324124
  0.1641904935368435  0.8283170645649607  0.5074864819862460
  0.1757724988826588  0.8564578252435529  0.1604841609913783
  0.1543624780910105  0.4659458038285148  0.8417231358264092
  0.1638893326936966  0.4915735136562715  0.5342400100934486
  0.1846587224799011  0.5046759283294548  0.1798732209685867
  0.1603434585500337  0.1661481044341527  0.8254975551746844
  0.1569766007677465  0.1575318982784654  0.4991062855277693
  0.1729928718501124  0.1683219077924461  0.1647710901998264
  0.6554226238534109  0.8883457535240002  0.8111041822349344
  0.8202886462053371  0.6747934751455651  0.8621536930955235
  0.8468497471591230  0.8287939826939835  0.6507990032537178
  0.6685477508415671  0.8186081774378586  0.5104115933393903
  0.8326600968021612  0.6567441482325415  0.5137748782842507
  0.8471876383904327  0.8683759202199356  0.3542101774507275
  0.6472357047419591  0.8621678874606499  0.1402946336103066
  0.7871545770071200  0.6693357989739968  0.1733879441220727
  0.8206399785927447  0.8255247048709901  0.9942280202174355
  0.5118396195621699  0.3266280589300548  0.8335607913587876
  0.8353215266804050  0.3319139959926828  0.8261756048202599
  0.8530080638350097  0.4842614032826746  0.6487726275156991
  0.6515898700949553  0.4785637700864273  0.5027828870601092
  0.8102230826167161  0.3288364773138418  0.4874395644616670
  0.8014864930945901  0.5513052421334451  0.3460316388191323
  0.6664820232850925  0.4908816584859087  0.1821540475080407
  0.8510658167788342  0.3591725391034025  0.1707186398315965
  0.8436696182088043  0.5142536022429606  0.0021376952416587
  0.6938150595500909  0.1601208289088700  0.8600155776260869
  0.8545201938960461  0.9875396867004967  0.8191606168701688
  0.8395818063677642  0.1422417127805616  0.6620381579055066
  0.6577974170293217  0.1282402284876206  0.4855002728404165
  0.8231367138233768  0.0187884907918512  0.5246318101808524
  0.8494468052355719  0.1716949092356908  0.3325698351619646
  0.6636635909871245  0.1424224194078022  0.1399861651506666
  0.7818509883057607  0.0068914014173789  0.1843039847171780
  0.8513433037785220  0.1798571322470826  0.0057008984059425
  0.3416206163087649  0.8173528058466237  0.8282957447676855
  0.3746751721618716  0.4887907085190453  0.7662034334934879
  0.5117411185598003  0.8044619274403461  0.6522965585671778
  0.3278486741687975  0.8330122385258312  0.5029716705266316
  0.4959195013283973  0.6406943147453402  0.4827346335170024
  0.5021479792196997  0.8220266035110491  0.3406583747272766
  0.3407143099219814  0.8477967005255438  0.1854200864982396
  0.5092526423527947  0.6649598119850463  0.1640461989349574
  0.5256405290129450  0.8226078120560621  0.9722878417175320
  0.5122050003868246  0.6313047765317978  0.7734733175845235
  0.3263761185959717  0.1702950452164014  0.8197852257746312
  0.6634769127619186  0.4837820155436457  0.8177523723710231
  0.3297839374917595  0.5054583493618400  0.4741209576994359
  0.4872596721435061  0.3301271521825390  0.5004772834497755
  0.4852223653448054  0.5005973876472896  0.3177786930696126
  0.3372073220145601  0.5117995791198087  0.1649114936014777
  0.4985677329630027  0.3143622347677486  0.1131279417733747
  0.4915088993139531  0.5449408952064041  0.9811756733446502
  0.1649081783987442  0.1792869154908666  0.9936784824065998
  0.4793531144958477  0.0136039469080649  0.8306991206430099
  0.5165165750885701  0.1506347431139874  0.6660252015612207
  0.3188915606187607  0.1589354161060013  0.4856562631248923
  0.4833933154948052  0.9961356858922429  0.5164932711342720
  0.5305618949591170  0.1559005386851733  0.3131425670791309
  0.3445198574849614  0.1667001331199559  0.1840953431570829
  0.4842974356694523  0.9946497786740299  0.1832437730445303
  0.5121258109249935  0.1708658894964714  0.9936314702323956
  0.9919051718930129  0.8068918617445872  0.8095348058042513
  0.1806288250177717  0.6629741240840114  0.8640876001572525
  0.1509488799029546  0.8183811352589484  0.6764652956771415
  0.9880071872829701  0.8500703611474395  0.5081401189296312
  0.1414345049278806  0.6562869869835662  0.5029831278976430
  0.1473250713451685  0.8514920468026834  0.3144436062127713
  0.9603205767509893  0.8548458581616193  0.1328466238369136
  0.1622871327169094  0.6931568473834471  0.1932637298188605
  0.1947363709633874  0.8611481409552313  0.9912706103633472
  0.0044116849802995  0.4928200594281406  0.8337829752885058
  0.1712492664577781  0.3257118538605425  0.8197128378616692
  0.1715060451702848  0.5063791495253798  0.6865156772370371
  0.9920241667364079  0.4900156350820096  0.4807041687525804
  0.1404238170329347  0.3165600054887229  0.5256611922138352
  0.1546042772018416  0.4955811643856421  0.3505982716034621
  0.0205224040959498  0.5550378349877239  0.1882965748740532
  0.1972625998151566  0.3391817343569921  0.1603541825827851
  0.1629135229794089  0.4948974062972661  0.9977629051026394
  0.0095334012011290  0.1505348048795653  0.8024406283923293
  0.1501511553856142  0.9893408648760954  0.8454278747186534
  0.1445175701078826  0.1342085572560394  0.6855265377015288
  0.0009940705130612  0.1616895778156992  0.4788252003921317
  0.1489256822696158  0.9940850894414391  0.5088708400935306
  0.1701981842450706  0.1627641820515784  0.3178776596541965
  0.9950767919488157  0.1406210514568445  0.1643922074909587
  0.1801124538567680  0.0131721307908775  0.1309355100609772
