Cl O  Li
 1.0000000000000000
    11.7780000000000005    0.0000000000000000    0.0000000000000000
     0.0000000000000000   11.7780000000000005    0.0000000000000000
     0.0000000000000000    0.0000000000000000   11.7780000000000005
 Cl  O   Li 
  27  27  80
Direct
  0.6919850063558640  0.6727632427944568  0.6755727390247045
  0.6962918442646471  0.6673114774927388  0.3298784915034531
  0.6525165494339570  0.6737478479640526  0.0101605970805281
  0.6940929197094896  0.3414884205742479  0.6680222910428258
  0.6672114172214856  0.3758110199518987  0.3282615649588024
  0.6663714664215841  0.3391194775400724  0.9822068442036819
  0.6500752792149344  0.0039758081858673  0.6532707436813894
  0.6741818307352393  0.9835081770351909  0.3151631583412026
  0.6486095859190922  0.0134115801049698  0.9909631539159530
  0.3607162164617352  0.6499860297093358  0.6670297102474729
  0.3228797871423844  0.6753058884799541  0.3445369831501561
  0.3400625036130648  0.6599013924271016  0.9780873183698038
  0.3447193378907278  0.3470359743558696  0.6534621586995576
  0.3276268836414952  0.3479788795532334  0.3586367558970645
  0.3258400600740564  0.3320068590239255  0.9962971360899436
  0.3555878081291606  0.0159427671542868  0.6698248634347289
  0.3176789099260278  0.0061570317607001  0.3453531285290164
  0.3340262504481292  0.9803753603470562  0.0237924970246110
  0.9948380937021898  0.6426750934126271  0.6813287521820767
  0.9691583708766048  0.6453019892361972  0.3361702480904823
  0.0072097359721265  0.6913373415910452  0.9779304981344245
  0.9993534190971985  0.3196897600899378  0.6896844549675432
  0.9849846654380243  0.3216310354962750  0.3439210786088296
  0.9924823349947932  0.3248226015749003  0.9832290464022468
  0.9992526983161758  0.9977133032563923  0.6737296407374572
  0.9787031832889349  0.0016097059306709  0.3517920495811560
  0.0362383581377702  0.9883724585533559  0.0182771278787177
  0.8144880269172389  0.8432041870651199  0.8029315391681584
  0.8366292546977060  0.8073032639811908  0.4842074369399615
  0.8088615265862459  0.8222411656845534  0.1475215878617810
  0.8305728802840332  0.5071901427580325  0.8346149351576189
  0.8328191727688133  0.4916856882280528  0.5015576617942441
  0.8469825076093180  0.4811176602167404  0.1646925433208756
  0.8384621911470596  0.1761671195449084  0.8101057967209297
  0.8164787754945155  0.1734525120807162  0.4951156233655397
  0.8395459046001740  0.1582976187014594  0.1541167724749135
  0.4750864873901504  0.8580634661023908  0.8536624298525664
  0.4899132161578343  0.8408194344783654  0.5046559697310863
  0.5017660081679934  0.8120340651028031  0.1725920261431481
  0.5042966296867405  0.4967870118213815  0.8294237339542366
  0.5075734377959819  0.4999948327920953  0.4888656477215622
  0.5008534670280802  0.5246622691816265  0.1595382243259432
  0.5035626292046363  0.1691420304850389  0.8261838485388550
  0.5208884818421387  0.1714887065437506  0.4808399415124679
  0.4980434961807883  0.1751380411525000  0.1671967582309932
  0.1759496313421416  0.8269942337816296  0.8303079353071959
  0.1582405944209661  0.8187660600374551  0.5116951679563178
  0.1360164626423067  0.8201184346708920  0.1720270117621086
  0.1714512367162555  0.5048840128373697  0.8466730286815535
  0.1707690373161619  0.5068865021835272  0.5167733338951644
  0.1676594440713007  0.5058468368564211  0.1750125071041696
  0.1806509590853221  0.1528307624631886  0.8388693039751275
  0.1693857318295356  0.1794853847139223  0.5054644228820591
  0.1703582925896761  0.1564180329385091  0.1787717798435949
  0.6356068868105766  0.8561876960893269  0.8409258008581372
  0.8392627496430954  0.6802967273895728  0.8203283627292749
  0.8199102378697048  0.8122298525452443  0.6536197684004307
  0.6680209634785268  0.7909840000908785  0.4961209570650217
  0.8441611603618349  0.6457623488325572  0.4830095141454233
  0.8239371596542041  0.8277373029955591  0.3140398906425828
  0.6483714507378603  0.8086315902811266  0.1915543800210041
  0.8196155040853851  0.6702726613461345  0.1867997937210554
  0.8110801270506311  0.8016244565005627  0.9724275592745498
  0.6597300373489545  0.5052307298880448  0.8214893223445434
  0.8490776275734047  0.3339941258559477  0.8518375904851992
  0.8075864790857831  0.5058983342978572  0.6697846614226646
  0.6616857255612282  0.5612670311172591  0.5013097696292179
  0.8209168671023048  0.3424650096326768  0.4847949207235143
  0.8422079822449768  0.4743952603242428  0.3203104126321016
  0.6667248635648985  0.5124045016158972  0.1385454562904276
  0.8581291126139977  0.3261422842398152  0.1596154704880973
  0.8259061270809362  0.5028909565917268  0.9938094420737095
  0.6834113301233123  0.1957281919075741  0.8230119786121627
  0.8050935494836846  0.0087933442375872  0.7852576334614532
  0.8371525691065133  0.1949997784120408  0.6546433610197931
  0.6790365576966599  0.1731397218035658  0.4948217397748285
  0.8282605965810604  0.0001524991121305  0.4958066688277038
  0.8327105099285503  0.1770259365458392  0.3167297007931904
  0.6800103127763933  0.1595805102500968  0.1470185667647030
  0.8130102284838265  0.9746635294236127  0.1352987490834722
  0.8405450035465264  0.1461380383761726  0.9841763442665884
  0.3298835403912186  0.8158365357746280  0.8192458638384585
  0.4893269064511695  0.6723981858530815  0.8290944256298332
  0.4993877737322381  0.8440701699836091  0.6941962300214125
  0.3223558047243130  0.8691862656860293  0.5180297985924672
  0.4680440503321240  0.6616829933766589  0.4975952332677698
  0.4922044879330513  0.8608040044716458  0.3391510066395810
  0.3117312388380278  0.8453246508958252  0.1894433088054036
  0.4883572403978393  0.6649090732672529  0.1300917484488631
  0.4999448124875205  0.8713242192138261  0.0199606010507784
  0.3225757012283697  0.4813595200556864  0.8449500506055806
  0.4726927470423903  0.3231027003900823  0.8369714289282397
  0.5101045046542382  0.4742776097229744  0.6743496343051871
  0.3486935881569028  0.5191851600132900  0.4806248830148983
  0.5321751258797801  0.3536282946262493  0.5198282819579672
  0.5358523751786790  0.5126058760449091  0.3274313711426949
  0.3403989373696167  0.5062040801136791  0.1553487637419112
  0.4790661222158467  0.3306440796401358  0.1772140834536777
  0.5030923101974326  0.4921230521115701  0.9989884889560744
  0.3279477710006324  0.1499419665227551  0.8103330008414797
  0.5011032620073732  0.0069162173307059  0.8112861083621468
  0.4897712338251957  0.1606217039014279  0.6712310836633780
  0.3389869682127571  0.1956513505995192  0.5095402105563487
  0.5080660237786493  0.9948681749423721  0.4985406890459594
  0.5034820632388677  0.1946781623155248  0.3370129316555545
  0.3354646768203807  0.1247286653510832  0.1529866424993097
  0.5041710439451250  0.9874229377869750  0.1843706691250130
  0.4875610138406665  0.1797321028020603  0.0105617714356562
  0.9909425122807773  0.8219412497677621  0.8094358441573413
  0.1740716751169412  0.6476518029141789  0.8250771393728981
  0.1277841593863190  0.8188726176364015  0.6714668706908339
  0.9873715397132934  0.8533279686732260  0.4689099438255646
  0.1758266569094669  0.6605476610258787  0.5341220607892794
  0.1449066335670176  0.8073521703563910  0.3547729498291894
  0.9867428721464853  0.8116584414694352  0.1524640770705861
  0.1475070822965484  0.6695825470483987  0.1280076405162786
  0.1576030403066773  0.8417380484297686  0.9693316855229801
  0.9976921299134184  0.4978549359646217  0.8204132201484966
  0.1761310262213511  0.1779101581415037  0.9827204431363616
  0.1563259786570704  0.4798955271470616  0.6711009230704400
  0.9787023938234413  0.4923682317541307  0.5185607242583422
  0.1644190728309999  0.3556611885152672  0.5006761729637503
  0.2049177923435559  0.5337967088271744  0.3314800335923288
  0.9971096381706858  0.5077019997958285  0.2031476200680762
  0.1679197956212340  0.3415523065511238  0.1921005282010143
  0.1592772030996222  0.4681808713555974  0.0087868252753567
  0.0153085373236877  0.1934873447104299  0.8174861250102655
  0.1488893857692788  0.0126304356281665  0.8323870230489486
  0.1520085639349419  0.1776007483960828  0.6892528804976463
  0.9779190808468684  0.1786717899158878  0.4995554558459562
  0.1310942971092885  0.0203057431446198  0.5324300135664961
  0.1921665076307306  0.1674455096244579  0.3318067306077915
  0.0081061613885479  0.1481391208543349  0.1590188774873093
  0.1513208079123350  0.9833052262055296  0.1834531077942679
