Cl O  Li
 1.0000000000000000
    11.7780000000000005    0.0000000000000000    0.0000000000000000
     0.0000000000000000   11.7780000000000005    0.0000000000000000
     0.0000000000000000    0.0000000000000000   11.7780000000000005
 Cl  O   Li 
  27  27  80
Direct
  0.6592540468473046  0.6739534168648661  0.6725025509462611
  0.6737751917408065  0.6872489064580248  0.3308985848760558
  0.6532837039297416  0.6577174314627882  0.0036661109629924
  0.6822829577259852  0.3616011918499580  0.6339458659414786
  0.6611005863943962  0.3264328927441951  0.3470843481271106
  0.6781812593893379  0.3282404043561102  0.9794332889283182
  0.6841302260104558  0.9919068681713593  0.6825492888192627
  0.6321995906880623  0.0101805785105123  0.3529763517764511
  0.6801883235868179  0.0192989928921562  0.9856641567239758
  0.3515543646566066  0.6540793315552953  0.6702229389691050
  0.3538260819788254  0.6824000498810445  0.3318965907163398
  0.3378837777404091  0.6700284373425807  0.9836306188639060
  0.3316821821613028  0.3351483286396307  0.6903394913987707
  0.3422363236770077  0.3499313129218808  0.3393611489010434
  0.3626301201939017  0.3126244934925820  0.9791595771931066
  0.3148691784541400  0.0100259577715444  0.6475774249224998
  0.3191656925833900  0.0242341276732129  0.3682926301210575
  0.3183532516195386  0.9877567353675711  0.0054691435601413
  0.9832321623701398  0.6414908791612247  0.6698958978276579
  0.9824791666397622  0.6554368883212035  0.3320324192666685
  0.9757353512305784  0.6766092597565390  0.0065719376604407
  0.0179667804995201  0.3413366652469835  0.6616852542659849
  0.9832823528919364  0.2906691342291223  0.2923294303650136
  0.0028552058763083  0.3091412097926771  0.9886264602519899
  0.9995732040899279  0.9943454410499450  0.6736975587912842
  0.0145846533918426  0.9736681290027902  0.3459276394798850
  0.0018068557961867  0.9935825086817668  0.9945403121058352
  0.8293967351029838  0.8267752321884649  0.8335146861557463
  0.8488287602214847  0.8601582056869566  0.4802292016021076
  0.8294500139024572  0.8285676022570647  0.1542866115107864
  0.8212671028465890  0.5059390061240092  0.8317666880964342
  0.8384648191616501  0.5066261649868197  0.4956232929046072
  0.8292414330704770  0.5185690775194920  0.1654079131342573
  0.8305704881077915  0.1650827448471708  0.8231645101352889
  0.8352481723715707  0.1585586222498250  0.5121679795574321
  0.8144950273561022  0.1630279179873211  0.1827822065647456
  0.5072985788108842  0.8507087490667120  0.8422778341067891
  0.5018584733072273  0.8404397058077624  0.5178349652983594
  0.4990910931111861  0.8385215070850878  0.1611904771319609
  0.4952468010108992  0.4947810652045480  0.8342732207962703
  0.5115640001453049  0.5117859899975031  0.4910341502323540
  0.4993112527704073  0.4857702275155288  0.1758799502386160
  0.5002493402039890  0.1426526739095294  0.8213466342584308
  0.4890272703951923  0.1540589928189359  0.5200453067391183
  0.5011554846491327  0.1651708815845971  0.1697432831356915
  0.1614082098425599  0.8296754450145000  0.8343406694892206
  0.1753606460613658  0.8236589892150221  0.5064090919359546
  0.1620850145617797  0.8328200277748967  0.1852666747161679
  0.1603436864737542  0.4978028962020248  0.8470937355600828
  0.1839559212601171  0.4929973994990840  0.4792697378720808
  0.1650322815555105  0.5173402643571741  0.1611006906140797
  0.1666378114572647  0.1735603896873588  0.8257492606471177
  0.1539245223016625  0.1780523673757703  0.5146554841145994
  0.1913744677764306  0.1778082808392780  0.1635687216890687
  0.6779826784536114  0.8176222907105771  0.8291314927638274
  0.8310521025443670  0.6544475058732355  0.7965359604885528
  0.8253632546820753  0.8323499111947427  0.6678230043536251
  0.6895625583154051  0.8271794385212465  0.4891036034596493
  0.8626289409348811  0.6971624878177533  0.4892611321897025
  0.6599234326151540  0.8483500690839548  0.1821826986144424
  0.8365568227622786  0.8492676304146999  0.3291099799505798
  0.8065045029682406  0.6783515493730505  0.1636957345413843
  0.8111868835395718  0.8286516499680878  0.0039768203533306
  0.6554565153954915  0.5127794209864648  0.8225285653160450
  0.8799379111564410  0.3329058822687941  0.8358172533603347
  0.8282325366549206  0.4871938159850394  0.6675547885128120
  0.6829937195827873  0.5240912874344951  0.5204406062817143
  0.8282798236137235  0.3471127591676829  0.4756873458886574
  0.8296187570910623  0.5129328606901148  0.3225646834838385
  0.5464629093333667  0.4749824851845044  0.3334638416630014
  0.6657822382283487  0.4893661821112801  0.1528411609199114
  0.8269164369487848  0.5101210679993757  0.9849670080862640
  0.6780749042174411  0.1679122600261083  0.8372316516417904
  0.8380533254550805  0.9998466396697769  0.8162283067929297
  0.8235104803818540  0.1938448351120208  0.6725276114150103
  0.6450025752693735  0.1798972672637596  0.5493987269014649
  0.8239953336512239  0.9905550660269224  0.5173990993750095
  0.8334517537619774  0.1265912008669721  0.3491217358966311
  0.8465836013281826  0.0083630979989854  0.1656083462774882
  0.8287596566922619  0.3454516023126793  0.1867168621000052
  0.9674012952448235  0.1806361867231707  0.1449688640504096
  0.3270459954427062  0.8827657444190438  0.8524374857880966
  0.4806881666277986  0.6612464231905086  0.8442464776502416
  0.5217004132013103  0.8127732721919573  0.6713039803851639
  0.3465758737970177  0.8441217728704437  0.5192731285154464
  0.5009505475040466  0.6640827095542575  0.5079460395532807
  0.4710672542964832  0.8578691606092861  0.3547758067917894
  0.3362587338710666  0.8484164651562465  0.1551835556465226
  0.4906807350223085  0.6871564377817353  0.1586546329953324
  0.5406250751625178  0.8630872441248645  0.9900720032002063
  0.3140708668983556  0.4804487037775687  0.8545565731148643
  0.5386893867427515  0.3245528110349731  0.8197262462112306
  0.4936592871165656  0.5198897520769503  0.6798454302314081
  0.3526686850796311  0.5144054769910554  0.4637803034291865
  0.5054823223504233  0.3511808141286751  0.5091069991685493
  0.4929145175154191  0.3262892302670442  0.1963625312594952
  0.3356170603663171  0.4892250499722501  0.1747187881962978
  0.4913442504057174  0.1551435969510689  0.3258369572271673
  0.5041020937549520  0.4910804153387073  0.0113648060784047
  0.3390697370963119  0.1487383192745845  0.8494834273668495
  0.5389700720898242  0.9913164232596204  0.8495586492585069
  0.4491684936361112  0.1599324642718792  0.6868536976034501
  0.3152934453075438  0.1714551686134936  0.5112277868825339
  0.4696963373452967  0.0082037613423447  0.5450161812761051
  0.3377479491900803  0.1276835883191649  0.1820983067774349
  0.5099275798757711  0.1671171265750038  0.0107547655956733
  0.5205680767708653  0.0184223230906136  0.1795055199117341
  0.6588374519790834  0.1954903645987899  0.1641300012910418
  0.9766701391032505  0.8271566047500437  0.8618993309437811
  0.1748385462148564  0.6817574654545715  0.8356628420068465
  0.1627307669715802  0.8004477320499983  0.6833335721805049
  0.0239316022193033  0.8615475030142532  0.5127389048083220
  0.2026179138816725  0.6591099676228793  0.4943733463583037
  0.1592777258728959  0.8379676666771899  0.3358365903257106
  0.0005467926417836  0.8178966198482903  0.1777116721256717
  0.1973352358945442  0.6642464325520309  0.1622062257031486
  0.1515940404069244  0.8071906580453327  0.0077216239867962
  0.9993567354032943  0.5031347842049280  0.8176978462027154
  0.1737947311332320  0.3401946123181541  0.8481461942767281
  0.1916179065463640  0.4917583030426428  0.6717149882668143
  0.0001086819922283  0.5121425045173823  0.4882232887060435
  0.2035828633847454  0.3146343511833476  0.5047447367335662
  0.1881118295606662  0.5110272529299295  0.3227811184853459
  0.9803138108152853  0.5306925144950602  0.1572192632715310
  0.1698749539861232  0.3538346732352614  0.1871210077046718
  0.1673784313038931  0.5272802826895895  0.0047455968536913
  0.9586447365371598  0.1425048717992127  0.8651890134133815
  0.1492399757608997  0.9909701578743000  0.8184885262587271
  0.1568504534843580  0.1762947742743038  0.6788772621382452
  0.9937850848954550  0.1858880350706343  0.4965230001695714
  0.1674978936272560  0.0176996053861904  0.4914419597666195
  0.1683894430821184  0.1736015026211468  0.3306413203386299
  0.1956469335721798  0.1670026641997678  0.9975249873020526
  0.1439121160562850  0.0161910987693431  0.1903953259612021
