Cl O  Li
 1.0000000000000000
    11.7780000000000005    0.0000000000000000    0.0000000000000000
     0.0000000000000000   11.7780000000000005    0.0000000000000000
     0.0000000000000000    0.0000000000000000   11.7780000000000005
 Cl  O   Li 
  27  27  80
Direct
  0.6918129176026644  0.6562633628536371  0.6519762537949638
  0.6589045140794194  0.6770078844767895  0.3217971287092100
  0.6753393638150934  0.6689430693616989  0.9941860994497734
  0.6760316643249654  0.3486798333040397  0.6623454579580901
  0.6418282539941605  0.3214267557236611  0.3387963450593644
  0.6538091823267608  0.3259070331286018  0.9959967410899441
  0.6627052843640271  0.9772748201365522  0.6546456188135550
  0.6621431849325028  0.0008804328699064  0.3273835687270734
  0.6687994721505782  0.9771362765334197  0.0007261751963866
  0.3234132781135151  0.6616001900765520  0.6591887295747131
  0.3347957511164704  0.6904754370621679  0.3314308141873595
  0.3282761831277423  0.6873355506093234  0.0247989776994198
  0.3385899020365539  0.3384188871270771  0.6860317709232797
  0.3274445520795822  0.3512687942985017  0.3464662250005484
  0.3523915807101179  0.3483950589305637  0.9667340588526121
  0.3313345319649795  0.0285368186711797  0.6624734323388916
  0.3443640931429864  0.9907269237425335  0.3448026390209488
  0.3043708440948095  0.0019738177497572  0.9777516242041412
  0.9742726366918232  0.6499061818441542  0.6703140392537675
  0.0034306144865899  0.6765390634297532  0.3323315538302770
  0.0057240689947285  0.6776469061871884  0.9958429547299715
  0.9988020269268819  0.3542756052088929  0.6659159877164030
  0.9867400718697557  0.3171415775091926  0.3450421102207086
  0.9845324834368723  0.2872541345471110  0.0064818347390063
  0.9899448254380824  0.0029338122182048  0.6644945044882088
  0.0195170255927898  0.0047027115029799  0.3326403360518439
  0.0215363138537318  0.9851459290123061  0.9833110794311147
  0.8283596791035989  0.8318561565092268  0.8474926059310637
  0.8453358592555008  0.8319434430530448  0.5084829651721368
  0.8557841719096382  0.8373045210365102  0.1693051480203437
  0.8413310425048256  0.4991287582659946  0.8388549627508165
  0.8224415218794409  0.5165981316817130  0.4921710696264325
  0.8555674130248515  0.5055841568799774  0.1749923562235330
  0.8282757933342155  0.1528128167897961  0.8454150566348885
  0.8236418333131654  0.1606898504522601  0.4991284468381873
  0.8309790851263312  0.1495614740034033  0.1839268789148266
  0.5039281462099507  0.7973538423968789  0.8129135314814809
  0.5058013251567789  0.8220418453746567  0.4937362760598925
  0.5033568161049615  0.8257485275665777  0.1579545167923014
  0.5101503893481234  0.4948127706545662  0.8316815958770634
  0.5018313663440569  0.5129063886060576  0.5013893950413637
  0.5030118399269136  0.4959746209488534  0.1860773019488831
  0.5090354211585399  0.1719286306140071  0.8244138170273442
  0.4945278388773660  0.1710619999289591  0.5089625148528054
  0.4813073282634051  0.1783110340338788  0.1593843703789994
  0.1561056616592868  0.8290032306419949  0.8102293488028539
  0.1612011148681752  0.8312456365274217  0.5005506183183502
  0.1734031340244253  0.8460014348569012  0.1629297991831530
  0.1623137956320973  0.5017775971817490  0.8825016354341461
  0.1529209882217028  0.5374661338051644  0.5137981731861471
  0.1782355130395623  0.5040599216813707  0.1930227764501173
  0.1757736155041783  0.1465785596062257  0.8115342745358480
  0.1593317314285283  0.1769152590409928  0.4914524536001033
  0.1751929535121993  0.1635363897460750  0.1537920498553430
  0.6595915514860001  0.8292694626977212  0.8209484278786301
  0.8385241890340988  0.6610345684143637  0.8282714288274993
  0.8509762055966914  0.8244419824171864  0.6642625230892869
  0.6483063244377063  0.8022365447765640  0.5189387271417020
  0.8510830870789174  0.6790911422157654  0.4874684868355440
  0.8042225206133837  0.8274123159732268  0.3203297755115606
  0.6452901209122104  0.8488389762683580  0.1405721870079411
  0.8387990039967310  0.6808426625057418  0.1808286114633944
  0.8545227275069135  0.8444464712321545  0.9979584891457250
  0.6730804398824136  0.4848604042721209  0.8600618682408255
  0.8683476043203695  0.3171481766310119  0.8080363351175468
  0.8235965706248590  0.5201629934826352  0.6676010714486776
  0.6681102890172712  0.5046868787396092  0.4997852821289572
  0.8206778964518944  0.3587333322405004  0.4827235563058647
  0.8273702966556308  0.5443393823350764  0.3377099595691944
  0.6599654747321509  0.5424514262136223  0.1634218487341389
  0.8336929840958497  0.3261530022366559  0.1947006132940138
  0.8340145192215460  0.4711045145971923  0.9982330167568345
  0.6675179469845263  0.1661921820309856  0.8498857794830846
  0.8063907572278112  0.9842963616623762  0.8284539370554821
  0.8346850385808734  0.1786010107825314  0.6586970747564741
  0.6365657984692943  0.1688296951533110  0.4766796513984515
  0.7920215135923820  0.9960770969175748  0.5060373225288413
  0.8213104404967037  0.1282229099602886  0.3443009033356363
  0.6869549113230390  0.1628318423996979  0.1773452265499646
  0.8388168175771018  0.9901938637364535  0.1958720991158651
  0.8635747793432457  0.1436816463411003  0.0050309331672344
  0.1265002400628057  0.8348995257447887  0.6442147958565090
  0.4828780002272062  0.6609505207033405  0.8565385039850860
  0.4836098144971739  0.8012772025027670  0.6630615234035936
  0.3164071159827896  0.8109951583616941  0.4757885270403934
  0.5128504423074443  0.6713439756270172  0.4902520207101490
  0.5250057008152207  0.8425818751922324  0.3383162285829566
  0.3503086063690115  0.8443540025558650  0.1369378421222198
  0.4922132475060269  0.6418419740102126  0.1731070114110196
  0.4934791857892544  0.8245770417447261  0.9708903897196274
  0.3230072904226965  0.4838432083475281  0.8158200600314653
  0.5015778467070499  0.3310471215019423  0.8286532872139973
  0.4840701336081240  0.5133765456716218  0.6823898653872533
  0.3253498774550049  0.5104364952022117  0.5296020982934089
  0.4917308233612529  0.3490906792440504  0.5423299824392924
  0.4824203531533118  0.4749072281814768  0.3483879459538875
  0.3275805020861408  0.4702369122623059  0.1785654568053765
  0.5227773838524512  0.3450234744766667  0.1585024058449388
  0.5258950438152417  0.5168401939477087  0.9891597826693618
  0.3661871460867818  0.1463003843545688  0.8153541539339446
  0.3613617305621535  0.8583951121866914  0.8383144015573770
  0.5448322562535287  0.1366267802622243  0.6652361567127905
  0.3189423123528592  0.1778819089312829  0.5153623269989488
  0.4688460000565275  0.9836160827889164  0.5303682441910007
  0.4738228714997190  0.2040914143424968  0.3486650685848860
  0.1849480344920361  0.1593580221643650  0.9928876450565236
  0.5139444390546819  0.0160840847577295  0.1474694332645914
  0.5194820334254601  0.1734596471187778  0.9864534089254148
  0.9894959415576851  0.8318934030863662  0.8294979748068609
  0.1964742914283722  0.6829069325874586  0.8489823070749968
  0.1743110193421962  0.0199508852378583  0.4716873954994850
  0.9913689838662547  0.8420053629547715  0.4697822330788089
  0.1313919504462010  0.6791381052912888  0.4713309619504257
  0.1633301008776716  0.8275227601715269  0.3184216576559593
  0.0172496693083222  0.8171311270912972  0.1828301898878284
  0.1980666838146029  0.6746138202457499  0.1824182710844544
  0.1799833289145297  0.8374962599379578  0.9893549552396395
  0.0114020781536793  0.4965951408269124  0.8577142002895706
  0.1778155578823165  0.3253886376971013  0.8446817848901631
  0.1236238933859269  0.5010307223392858  0.6681370577907942
  0.0050986377303768  0.5006516169606635  0.5050856724829318
  0.1391096537778696  0.3243765226914552  0.4952503089351957
  0.1593107093794200  0.5015222961867050  0.3556791253705485
  0.0200268684814416  0.5335302637076068  0.1589177456654521
  0.1297965621396353  0.3517115022561304  0.1714970281141726
  0.2025697140199264  0.5395003637127102  0.0313235861216848
  0.9909612122870609  0.1093217194154904  0.8348551661909729
  0.1741018919571819  0.9854079923359782  0.7805465798306940
  0.1889020015678342  0.1643741644551926  0.6690111377912702
  0.1500226377245249  0.1762864801393072  0.3290847858952067
  0.9855674967373432  0.1833687953261185  0.4601724947206353
  0.3301866693798247  0.1728078320188397  0.1436401106446278
  0.9878703511353085  0.1403174099891064  0.1966772324632234
  0.1682978023755130  0.9922962603203912  0.1414474410853051
