Cl O  Li
 1.0000000000000000
    11.7780000000000005    0.0000000000000000    0.0000000000000000
     0.0000000000000000   11.7780000000000005    0.0000000000000000
     0.0000000000000000    0.0000000000000000   11.7780000000000005
 Cl  O   Li 
  27  27  80
Direct
  0.6696994570601144  0.6695654615230353  0.6545981300778586
  0.6988305718365131  0.6652563564312959  0.3779037942310459
  0.6543443532073813  0.6518483173985204  0.9636195675233050
  0.6476719123107422  0.3100459323342284  0.6775774463293702
  0.6704883557580891  0.3171882873839720  0.3467129842242527
  0.6612667915103631  0.3336221047416926  0.0237556415018566
  0.6607156231395210  0.0182317078057232  0.6709887697458845
  0.6644260704745658  0.0141378408655599  0.3151765502728527
  0.6758945344882210  0.0410675640071334  0.9752526831688241
  0.3000993441956010  0.6636950770825996  0.7000784274625109
  0.3245441310732000  0.6796340615174012  0.3588091745189353
  0.3554531626268521  0.6598468983829590  0.9945714136631316
  0.3163249046046209  0.3468375141940017  0.6636760116057286
  0.3456111999572969  0.3349856735909760  0.3248220574907030
  0.3547909832619709  0.3424065480183608  0.0089502732160046
  0.3255292220677150  0.9672182011262563  0.6583878478455544
  0.3426385587328900  0.0028781857306079  0.3293003511105569
  0.3360471898696439  0.9744670884715650  0.9993611523691323
  0.0082530564875970  0.6822217269787455  0.6676663345796476
  0.0019387669233090  0.6784621303560405  0.3528524346991103
  0.0148467684439431  0.6631682809285377  0.0155424245863147
  0.0044651099565859  0.3178768632361301  0.6578103639582551
  0.9786161650759067  0.3255338890596601  0.3404106811879356
  0.9965750782634872  0.3397104626292132  0.0195845119523414
  0.0049623106434013  0.9949807471052450  0.6457053478442070
  0.0170435131128094  0.0123053750590966  0.3353465636863362
  0.0091947933013335  0.0209426854998811  0.9944258312919314
  0.8236568071615432  0.8449880545152624  0.8191007553902168
  0.8230001338124131  0.8502430607247008  0.4912391771107271
  0.8253671537896167  0.8446610943446352  0.1569506310963808
  0.8394799628385236  0.4695767266369320  0.8397132540915744
  0.8306573823056975  0.4896860726636292  0.5107329424793773
  0.8340280355951660  0.5055900372188382  0.1761966561202922
  0.8365675234186888  0.1700708460773743  0.8273676331862881
  0.8478851387949297  0.1624643156813846  0.4948907586597279
  0.8256315235164858  0.1795045741158597  0.1672932161024754
  0.4952106195626059  0.8345462195267145  0.8243727654718275
  0.4910850348340974  0.8386945165701961  0.5074820045470838
  0.5088922185103055  0.8348648397028954  0.1745420781444029
  0.4967874857941268  0.4772560801640405  0.8087021588194786
  0.4969963095385665  0.4899383777383383  0.4968997661568847
  0.5173856121749577  0.4857561134359220  0.1863550122684820
  0.4676269786101158  0.1797336810506764  0.8370135250155328
  0.4976518088108086  0.1700264335826767  0.4942567976255707
  0.4763869282137738  0.1521537951199577  0.1576257860351458
  0.1556456303142611  0.8323629223397917  0.8344706364175758
  0.1695454557428576  0.8208900049310437  0.4883003816890250
  0.1810416320196127  0.8423576364610279  0.1475762546688588
  0.1555559247671997  0.4943454170367082  0.8517039798933790
  0.1690050969764680  0.4809135725828917  0.4916854072990201
  0.1673323511728707  0.5073538650734344  0.1840706230129537
  0.1740769471913648  0.1671676373310043  0.8340457015549081
  0.1789963698378599  0.1609509913007551  0.4728436594573576
  0.1742320063114122  0.1857681326148699  0.1516816675418676
  0.6590100133044098  0.8046663675789955  0.7905676910893635
  0.8252086938951348  0.6882103288161887  0.8355501393880570
  0.8237247416794126  0.7928719150445515  0.6655602025840590
  0.6659924104995040  0.8515652332423267  0.5140415316354169
  0.8343539431451350  0.6457788257120292  0.5115338248586925
  0.8220335851356478  0.8486634009998946  0.3366120566300544
  0.6546728923089959  0.8093443757260541  0.1451569983914878
  0.8142918031064209  0.6779751718453541  0.1737899199559433
  0.7962999249900936  0.8378715291570570  0.9836559145603843
  0.6411559880089079  0.4674903515213911  0.8059838874256873
  0.8230951125841182  0.3239880548948536  0.8558087146357712
  0.8572907902016259  0.4692840980939286  0.6918094444251229
  0.6578804298818401  0.4808345855481104  0.5352147937497709
  0.8423558034477782  0.3113633883015970  0.5026274800127131
  0.8495312755628479  0.5247030373070587  0.3512701839080680
  0.6745736979891230  0.4815484242960674  0.2127274107265654
  0.8174976807774577  0.3488793553586150  0.1733040140659149
  0.8200482616033024  0.5092230359646791  0.0056818968259666
  0.6425679166803577  0.1911110124065702  0.8060674493117910
  0.8123620255565048  0.9998585560086868  0.8423398665172752
  0.8494027748717171  0.1641261304242996  0.6879958807509763
  0.6555492394924282  0.1495362919114922  0.4831835926691015
  0.8363999138215616  0.0013909333213915  0.5137993074277816
  0.8153408610486318  0.1858146098654742  0.3254642168203717
  0.6675756329403845  0.1868903072074216  0.2028987677568784
  0.8391089545418881  0.0215344544110416  0.1807049494289072
  0.8568892559058999  0.1554010185158898  0.9959550692852953
  0.3244527555029788  0.8287260369945970  0.8344210013049966
  0.4901880400915988  0.6547675988526344  0.8389213594732647
  0.4590008737716997  0.7930914269372137  0.6444612311969340
  0.3059158425554145  0.8109993383133378  0.5128001679960195
  0.5081921448017259  0.6831522436406693  0.4715177622820177
  0.4904801828096828  0.8743686403876748  0.3295909148976534
  0.3308282156750467  0.8439740569380544  0.1292184188107853
  0.5142713934720116  0.6530004511944235  0.1703801982458885
  0.4988062097896678  0.8141068364382350  0.9645970902765005
  0.3131340065352596  0.4962134543364747  0.8669779914700140
  0.4555314765674021  0.3203654608993656  0.8214186260797605
  0.4597123238804705  0.4760524489267015  0.6604435350203651
  0.3305282795155504  0.4651649100601898  0.4677651291498215
  0.5109101327976477  0.3062456478745400  0.5333189024879698
  0.5253796587934837  0.4749625816912772  0.3545288950390689
  0.3359471099362869  0.4963776226737572  0.1403101660850044
  0.4974489364216291  0.3053657177323286  0.1827947050761775
  0.5156052257876985  0.4344179011170935  0.9759424229765177
  0.1644252457057946  0.1766746642041752  0.9975027101849000
  0.5214052870710789  0.9888157756401003  0.8170034492139939
  0.3149114374875937  0.1276330879773800  0.8631911481664236
  0.3340944166068854  0.1512220335316783  0.4642979991284804
  0.4720485116852421  0.9973617634896180  0.5192865784340115
  0.5052687743212088  0.1529217324969391  0.3106737629799887
  0.3236422375960993  0.1521680459842545  0.1685243470545121
  0.5218107889369782  0.0285282077636222  0.1222491591312148
  0.5366965859177558  0.1946309354024655  0.9806962906604401
  0.9998414365507278  0.8400863239929084  0.8570146130560667
  0.1613983034253136  0.6601133733511449  0.8533137607631761
  0.1538077445235429  0.8474728060645543  0.6405786803842595
  0.0106767320004961  0.8704349969876636  0.4913051278435096
  0.1555052066699048  0.6717990415890962  0.4776544597489997
  0.1839769456960605  0.8550383146189282  0.3383507835304917
  0.9820442127598019  0.8288834442684204  0.1256781518963982
  0.1750885763720916  0.6820072352769148  0.1452295280033846
  0.1802322274615064  0.8299824612064899  0.9748670773515692
  0.9995988146055691  0.4564451219831862  0.8661024539947806
  0.1599641786278677  0.3303477459997522  0.8355075487368064
  0.1308532357069684  0.5218450102781751  0.6778710870076217
  0.0125824586865731  0.4774223132572297  0.5225487308248569
  0.1755529642667401  0.3359024859416374  0.4744410113063051
  0.1479360240645792  0.5152723659170235  0.3401691452322691
  0.0016905970536741  0.5020444869584547  0.1807889566545203
  0.2107897039579965  0.3364784921114739  0.1731253519518761
  0.1710078494777900  0.5014848571369364  0.0193766396150351
  0.0167103700609838  0.1445105646998628  0.7681624174653068
  0.1609953420188877  0.9919758567214876  0.8048969351397780
  0.2085040394120553  0.1758531949939086  0.6629280436571974
  0.0067722292394540  0.1730940738214938  0.5063219760962437
  0.1753427842610674  0.9953584497276715  0.4872107168806503
  0.1719299046890378  0.1699200784107800  0.3334892145347922
  0.0219097354003131  0.1766366281615422  0.1701556864050993
  0.1659038336047007  0.9963164313121441  0.1442188299870862
