Cl O  Li
 1.0000000000000000
    11.7780000000000005    0.0000000000000000    0.0000000000000000
     0.0000000000000000   11.7780000000000005    0.0000000000000000
     0.0000000000000000    0.0000000000000000   11.7780000000000005
 Cl  O   Li 
  27  27  80
Direct
  0.6679175071347578  0.6762241279793878  0.6569213937320976
  0.6553298239634758  0.6618175567959994  0.3156992860483901
  0.6843206567944532  0.6874622704959285  0.9940930496274477
  0.6598158502966273  0.3349191669042504  0.6598282866507715
  0.6576320267993750  0.3428343074588148  0.3373268349476140
  0.6440520867160199  0.3242890747595092  0.9982623788413900
  0.7060931434612411  0.0141053027029380  0.6770162864674485
  0.6697910099648654  0.0131404253145016  0.3197991018134756
  0.6649519508570892  0.9969212736193575  0.0070210082411333
  0.3282895529526130  0.6814845997191674  0.6656565257794660
  0.3286678891084466  0.6722370843236736  0.3064108196607481
  0.3383174246245854  0.6417042836845385  0.0086762118431230
  0.3463535558267377  0.3256866513531372  0.7055296748590738
  0.3191646273783996  0.3189044949955769  0.3397835098651165
  0.3354322318856360  0.3257772577005696  0.0085686414763438
  0.3276506526984440  0.0330959697991976  0.6687326881970743
  0.3325597920508159  0.9680544279888876  0.3485700583831013
  0.3404205809425438  0.9968900163525503  0.9999811201824718
  0.0082334294982394  0.6639338911148914  0.6677884874665926
  0.0057051725804663  0.6510429722232036  0.3262661399828143
  0.0015443332835042  0.6705327295362705  0.0144624062410165
  0.9950455931404335  0.3389299350101860  0.6702273690464292
  0.9912609784321432  0.3290006453114030  0.3146451269445276
  0.9896188484546395  0.3408630323637165  0.0035275446746758
  0.9927428102245203  0.0063240689068994  0.6765255628136381
  0.9956717322668747  0.9920387578521089  0.3288098382889701
  0.0077682723808023  0.0044432780704191  0.9739983928461267
  0.8503699462225217  0.8155270957032220  0.8261323102781449
  0.8315322469218526  0.8553328365752897  0.5019792360340233
  0.8304446468693844  0.8373651687341030  0.1568137077238055
  0.8136353475772307  0.4832332557149734  0.8625916891067046
  0.8607414985394239  0.5006710505109434  0.4991493868504537
  0.8355569015233953  0.5064493711291891  0.1554147849902971
  0.8529542109094312  0.1627508721333412  0.8309465113442217
  0.8360564914819816  0.1733868953906378  0.5081879165598679
  0.8373591500320191  0.1698872353424145  0.1718355761673714
  0.5030544402177567  0.8426665712233259  0.8362190072507516
  0.5019114966099090  0.8221765813724287  0.4973367335914768
  0.4963895296073654  0.8401260307791448  0.1633512613558968
  0.4922407062535548  0.5033020758463267  0.8314224578234063
  0.4915974740605228  0.4931087403039540  0.5104253832252825
  0.4997683204642306  0.4840445023592317  0.1735114899542960
  0.5083702555129160  0.1703083240911385  0.8286610289826253
  0.4922825681674266  0.1652771920772828  0.5004656080128193
  0.5083807412340889  0.1567158234093512  0.1746389883782541
  0.1529566655074472  0.8123988690484386  0.8303724282313568
  0.1496525702319104  0.8400848166318320  0.4916637155244695
  0.1495689273749867  0.8410942798431273  0.1509030605431902
  0.1778049401018014  0.4856394250835832  0.8383736407674413
  0.1756087280691095  0.4990370998514154  0.4906066414710917
  0.1718609531861054  0.5087053801123537  0.1697722979781980
  0.1833316236546021  0.1728089054357144  0.8357258949577548
  0.1417713766935756  0.1767130956999987  0.5123367803990884
  0.1604467092577043  0.1685309032601568  0.1570347175766354
  0.6735074491405805  0.8368089801724292  0.8093379905876666
  0.8191248452810070  0.6646519403454815  0.8185560326047284
  0.8740929389691114  0.8278587086566712  0.6532739012095002
  0.6670139537558499  0.8458611129795812  0.4991834350802081
  0.8476911885888259  0.6727949732725647  0.4793284993695364
  0.8578510831825933  0.8502683547050008  0.2990205926886834
  0.6790634643728786  0.8458242712565412  0.1322517864339148
  0.8539358201586920  0.6617887716695363  0.1599276430288822
  0.8138079773651894  0.8265651998092785  0.9997976200619457
  0.6560460108652091  0.4782439957363420  0.8187981353561340
  0.0233266133810764  0.1993339743746592  0.8391912841064689
  0.8326162032874266  0.3390202984451587  0.8435740726442884
  0.7761244816818641  0.5113393608826622  0.6352666791228080
  0.8231498237658292  0.3484547349783180  0.5341548941228718
  0.8671247521529042  0.4864924931563033  0.3297697878439161
  0.6516198219679404  0.5114137730661210  0.1755797073634814
  0.8385767082503756  0.3312532130347230  0.1808679116090657
  0.7877178026997560  0.4889252614392399  0.0195488767495757
  0.6762646674987283  0.1685765606812099  0.8296161607737890
  0.8743001432971539  0.9754276409674275  0.8300775325053973
  0.8629307065961974  0.1933257775988078  0.6751270752982864
  0.6472582477849264  0.1622215760052161  0.5489646190183834
  0.8066176875900840  0.0217306955044498  0.4926940287218808
  0.8367367273396933  0.1950475208697778  0.3438954510104772
  0.6675611950419283  0.1762498211541235  0.1857109382870153
  0.8120964971456378  0.0163855687724982  0.1699600895521770
  0.8336154641754185  0.1339702395507414  0.9869274629108319
  0.3180210157612878  0.8182367841901075  0.7949530386131830
  0.5116456061473998  0.6584320453610852  0.8403587213873269
  0.5104784117790014  0.8231064502677937  0.6729575026653312
  0.3106498371745971  0.8135309220810144  0.4646895014477166
  0.5109954104638591  0.6613835127160966  0.4662911852355271
  0.5136963945876086  0.8363883367632143  0.3372296902064773
  0.3143276937546450  0.8802754927815525  0.1699291991843974
  0.4773485125780075  0.6925232706209631  0.1960549605251626
  0.4820262778126063  0.8173821371863997  0.0152268631379126
  0.3302796335206258  0.4964052243224233  0.8481727293878761
  0.5068491781762843  0.3214776059520497  0.8283599794743556
  0.4815940555761506  0.4890924661822674  0.6702875303655911
  0.3414099633905119  0.5123677307803969  0.4978370118020318
  0.4913717274147306  0.3256371376967879  0.4837005592737233
  0.5024024631761790  0.4912373022297530  0.3387722450530791
  0.3328252143983434  0.4919033681939878  0.1815320545163287
  0.4847039423402339  0.3226104079647091  0.1723538298999371
  0.4860321471839399  0.4736972412882897  0.0077107708218702
  0.1405200232792769  0.1615732224078274  0.9925163330755481
  0.4929208611404467  0.0063385108117244  0.8562165325752111
  0.4943776476461033  0.1733382724133070  0.6516278049269920
  0.1585614960227733  0.0190439964045618  0.5098965628007240
  0.4877270283854185  0.9825747391359786  0.5075055754608396
  0.5402257144945963  0.1749209685438584  0.3398765453371449
  0.3170144674995077  0.1244822813056494  0.1551730769716384
  0.5117464553035455  0.0003222254937774  0.1401091340657984
  0.4929075414405783  0.1619060732056001  0.0069271776103504
  0.9981842523792894  0.8103460158523231  0.8527945437859463
  0.1530353590230066  0.6465114402892865  0.8305131555162876
  0.1453396595116371  0.8596339255558620  0.6631332321199170
  0.9839449599513186  0.8452317267967466  0.4997937931203738
  0.1283442184259590  0.6703031367765344  0.4927607081920422
  0.1481831117929444  0.8390883087517155  0.3196169377114774
  0.0119161677331071  0.8314411006400947  0.1258284117791900
  0.1768559418502424  0.6485589089258806  0.1770187005314720
  0.1908516873363252  0.8319677348525165  0.9991103198164927
  0.9771292437192611  0.5023455270658151  0.8930493488250022
  0.1812319288391930  0.2045244468406627  0.6928914254107843
  0.1739551622284685  0.4968409283041334  0.6768930083941994
  0.0022768345402717  0.4972595069574414  0.4738776652322470
  0.1682698770822511  0.3330623845484456  0.5091084738109481
  0.1747109843465271  0.4784151275641332  0.3240501305846648
  0.0219453880752978  0.5068351970858604  0.1560070764162796
  0.1815127761279054  0.3104974364676089  0.1813711857399558
  0.1648739912610412  0.4717007842682124  0.0010887179715473
  0.1692810204380587  0.3313415724419041  0.8400732182764721
  0.3327211871375180  0.1510229472487712  0.8339024320943257
  0.1523869244547980  0.9771329623439928  0.8121363421223076
  0.9927124240266112  0.1659092199331156  0.5352792549275599
  0.3449422749218471  0.1896441153902261  0.4903354297099435
  0.1166355747178700  0.1903128331488116  0.3229056080458294
  0.9913632528012355  0.2090808773016893  0.1494750085572343
  0.1117447448921407  0.0001827657500991  0.1479905603952403
