Cl O  Li
 1.0000000000000000
    11.7780000000000005    0.0000000000000000    0.0000000000000000
     0.0000000000000000   11.7780000000000005    0.0000000000000000
     0.0000000000000000    0.0000000000000000   11.7780000000000005
 Cl  O   Li 
  27  27  80
Direct
  0.6547064490029987  0.6530976565348152  0.6566034250711248
  0.6415187315710845  0.6327612683292078  0.3296067366040558
  0.6565548103935374  0.6661738771477711  0.0010207895745191
  0.6686386931235999  0.3353892927564537  0.6868488197851380
  0.6553761586541276  0.3315558912314391  0.3346352471876183
  0.6534525348865217  0.3391695369382248  0.0151291262507975
  0.7004135051686916  0.9912690034756378  0.6673331518097136
  0.7067209700947755  0.9883697363634758  0.3297529699047376
  0.6858900121214137  0.9779106305520837  0.0222178710267739
  0.3307686964116112  0.6802954715306339  0.6538620365082611
  0.3293895609222081  0.6834743049478350  0.3291672877219268
  0.3006036247509069  0.6843098428380535  0.0009196604997187
  0.3393206927071431  0.3517542241891715  0.6822279770369064
  0.3190945260300810  0.3573538826933784  0.3317974021355867
  0.3582143833297510  0.3386432468517873  0.9852095391383975
  0.3323001987413011  0.0046748730597667  0.6561640774025206
  0.3520536375292682  0.0244410081355477  0.3319099515752034
  0.3143769636375170  0.9842708429066352  0.0248963199592189
  0.9664980373647288  0.6518888431650046  0.6615921992248368
  0.0087769256554657  0.6489976990707950  0.3433912899492177
  0.0026630537360877  0.6718467332731388  0.9954160093496635
  0.0031780221408956  0.3210077820418144  0.6975027983217403
  0.0149335103149087  0.3425893395153532  0.3210832622798225
  0.0072669014683304  0.3419931918540744  0.9660367813199451
  0.9861337306637483  0.9925615621810661  0.6330869484006084
  0.9812876599890391  0.0200413700761813  0.3397534329541846
  0.9769609981462479  0.9849163030623828  0.0035946197796027
  0.8270388311403705  0.8285871314242536  0.8242298236431737
  0.8222093265893390  0.8203183912993250  0.4939794037505258
  0.8606669842814226  0.7920621662316008  0.1883165020481994
  0.8399147299449727  0.5077253995515394  0.8268401609340806
  0.8221251979074961  0.5024786118803175  0.5147453421555334
  0.8365455341302619  0.4911192560464345  0.1587877294540759
  0.8397718974187256  0.1643007539898378  0.8657696355935358
  0.8312733621070116  0.1876657038923236  0.5066297988217955
  0.8342799705903532  0.1654426652197324  0.1651486351212726
  0.4978701814011603  0.8443406521961475  0.8114274463430114
  0.5079067574362685  0.8427097379423645  0.4927579184474059
  0.5033255499043623  0.8254253018792247  0.1904995563226627
  0.4874668075520497  0.5184311184420374  0.8194897108772762
  0.5097404631084110  0.4977559888115118  0.5110013729010633
  0.4984210258887229  0.5014843306977476  0.1363274968860337
  0.5262435712452337  0.1620837729418498  0.8527531714456426
  0.5146549060494842  0.1754463569806216  0.5115290597341434
  0.4968235930689555  0.1580074083504686  0.1707370892882802
  0.1591912659559844  0.8311618415544186  0.8323963785934283
  0.1660136344469617  0.8098561516641704  0.4882214877788868
  0.1585554425929703  0.8477563252614626  0.1741187546092508
  0.1738141506846504  0.5087821497216377  0.8144936493497761
  0.1693656138410981  0.4969439729444648  0.5072723832482685
  0.1848289959226998  0.5001117943301636  0.1513282218242616
  0.1477343908909227  0.1675034434348424  0.8251438222578446
  0.1542987053789805  0.1814208294099979  0.4896823228255367
  0.1828261219651479  0.1703213291797765  0.1756133949731957
  0.6561001187545681  0.8138832353903094  0.8540579352369968
  0.8202116954923736  0.6537080550603909  0.8394113665435193
  0.8372706278221808  0.8344545199443543  0.6741458746517741
  0.6649114443434325  0.8446100421138485  0.4884883676011719
  0.8240314939196501  0.6597238226078999  0.5070351792314651
  0.8600637516734054  0.8305432244906265  0.3363121731097912
  0.6876749328745856  0.7993993370739471  0.1866071473126693
  0.8575253164705413  0.6546616079205673  0.1446047996751631
  0.8507949409522866  0.8206899663916997  0.0062743092103115
  0.6471989155556501  0.4833348833659570  0.8611039350110973
  0.8548117413843022  0.3361132528568942  0.8428658246315512
  0.8593831109615944  0.4838873067845070  0.6748156652737228
  0.6756767577573535  0.4857975298814248  0.4827832041186770
  0.8504814219377572  0.3410108133820249  0.5172509032055312
  0.8145839805990822  0.5115768575693844  0.3256577289909747
  0.6562451779783619  0.4652145855293191  0.1577748654683461
  0.8026654807686003  0.3419677265312259  0.1311223788229865
  0.8383690779645110  0.5001208225765789  0.9996976265085921
  0.6752290296088929  0.1887217050823382  0.8470378461252542
  0.8398194272899880  0.9902809064394352  0.8160656168466950
  0.8402592607835114  0.1590790773941276  0.6775553534493692
  0.6830961139818655  0.2078787330538620  0.5041644397838621
  0.8236601617397351  0.0078076141540500  0.5075891410955925
  0.8466368464396009  0.1864717284252538  0.3242104970420625
  0.6666738147232711  0.1214641235098209  0.1912752365342940
  0.8369234249465862  0.0162566914768533  0.1807005486730476
  0.8338777885280683  0.1085719293277201  0.0215694389889035
  0.3312464647342428  0.8447810524854100  0.8292793259117869
  0.5275725048263185  0.6920649850525586  0.8167720872500438
  0.5055050414627513  0.8530669584241503  0.6529634223493651
  0.3275030420328067  0.8295453401065724  0.4825557166002575
  0.5033751850169413  0.6560581116508319  0.5071555828406088
  0.5075132797371195  0.8008786739529369  0.3392161915643599
  0.3231817913180870  0.8615452510308972  0.2033472570392459
  0.4971276789829699  0.6680177446578072  0.1706857942738938
  0.4406514228040025  0.8545457285074012  0.0291782036734540
  0.3373915629237861  0.5092557075616362  0.8146400445920974
  0.5005675623234256  0.3146311073074484  0.8233767960558632
  0.5086466283028130  0.4887005766861551  0.6708033992076198
  0.3401312915848424  0.4974621861916204  0.5293976597772215
  0.4970283277869919  0.3370433444220138  0.5112892646511042
  0.4979002215753313  0.4768989177487426  0.3264637935027614
  0.3534503436865827  0.5068674327442172  0.1491738919481465
  0.4853666673971313  0.3037322730115650  0.1390732781158752
  0.4645242520527583  0.5145105518294348  0.9716771175397833
  0.1662156465211801  0.0162503011079291  0.7980098527534919
  0.4951284689550171  0.9845739445191209  0.7975388454943191
  0.5409098968187590  0.1456445102964931  0.6503952708556092
  0.3258023916604124  0.2087973470052654  0.5306376064272713
  0.4909592004691899  0.0020928970636874  0.4709673752877875
  0.4796802081740259  0.1707401305028392  0.3377522593838500
  0.3318915187707218  0.1567045271306763  0.1341257282308284
  0.5140303781158416  0.9886730720322375  0.1892107437828225
  0.5014736662831594  0.1491115188616045  0.0056688037260772
  0.0058340108433029  0.8611169963646149  0.8281756936369850
  0.2066427777076202  0.6733121836565213  0.8136297716726035
  0.1980029483152364  0.8284343394871625  0.6639370331973966
  0.9863187249489346  0.8338733923701609  0.5225276905655142
  0.1711591377438810  0.6543283320259902  0.4895100978916774
  0.1426235329835545  0.8108359795553940  0.3343081453180562
  0.0128604903239698  0.8399602118121042  0.1328590713315746
  0.1452504389284771  0.6776280902971297  0.1597703204745275
  0.1723649551933565  0.8228029809069772  0.0133987950122453
  0.0045789365667973  0.5192315959672532  0.7988509776302813
  0.1684698134181926  0.3368805728313740  0.8243073127177872
  0.1637761981456045  0.5000339813722705  0.6651037012554658
  0.9981262863744524  0.4837623283240406  0.4654038702546517
  0.1231718623198831  0.3309184889374376  0.4897070998964164
  0.1977819991905214  0.5131616589412524  0.3245798251941858
  0.9889645268263596  0.4954984413827699  0.1569794891047820
  0.1955604432912109  0.3486892762301150  0.1629368463271086
  0.1507316270018645  0.5190157682468948  0.9694174092022860
  0.9869460387848483  0.1693890817665778  0.8583611294588861
  0.2054507455402273  0.1940199497095861  0.9642125818852101
  0.1573976914464391  0.1778073851171550  0.6692600144101143
  0.9903961630362635  0.1662291449144636  0.4863001716796471
  0.1712058781496499  0.0371172885657939  0.4631864033817445
  0.2041465890300221  0.1958304369991314  0.3356630098042038
  0.0212518847938005  0.1976044064489162  0.1400916886027660
  0.1319746859726613  0.0319391894532015  0.1519589946323865
