Cl O  Li
 1.0000000000000000
    11.7780000000000005    0.0000000000000000    0.0000000000000000
     0.0000000000000000   11.7780000000000005    0.0000000000000000
     0.0000000000000000    0.0000000000000000   11.7780000000000005
 Cl  O   Li 
  27  27  80
Direct
  0.6783381245587196  0.6943593825333702  0.6566101551730852
  0.6590952472754305  0.6786539584284779  0.3440412117588003
  0.6593078766484040  0.6704855006639563  0.0068457399313845
  0.6428354969377212  0.3104218678083408  0.6722216531269306
  0.6291092830682744  0.3303303049882405  0.3334479006089843
  0.6652676933593841  0.3366402192816252  0.9755089420667074
  0.6542656617535790  0.0211082347457640  0.6462385623707728
  0.6854695485477810  0.0089470286782346  0.3419009505626374
  0.6790854852261018  0.9937602346937036  0.0089819690337519
  0.3551180770719376  0.6945157371865356  0.6821847076575985
  0.3618372381316406  0.6826852526372501  0.3443465527205228
  0.3167784545925165  0.6638691320600757  0.9865746749347056
  0.3321668172095104  0.3010936852335535  0.6543604214284605
  0.3432805885467335  0.3403374278876216  0.3107406058268196
  0.3200214168990529  0.3263461560393366  0.9932965029707881
  0.3175129206568348  0.0132378103264717  0.6861704152947851
  0.3431774722076316  0.0034014061771835  0.3287917343405852
  0.3392517234625574  0.9832863396885796  0.0118406476247016
  0.0059214886092240  0.6615160390638896  0.6487282936254866
  0.9884525440858172  0.6368672664483378  0.3364366752692498
  0.9927845512678887  0.6469535585668451  0.9870894709602293
  0.9736554228044856  0.3239877796971539  0.6411206397593712
  0.0325177321640018  0.3096787985944115  0.3221220869372315
  0.0369848720534188  0.3528105373487901  0.0058226856414573
  0.0027653757305949  0.0060197026466499  0.6619336626961321
  0.9860071456201503  0.0022093857126044  0.3257321911837549
  0.9919361194071905  0.0004925996903056  0.0215027867550205
  0.8516004565622763  0.8180850624747532  0.8378917562055567
  0.8611012486823174  0.8325865314590271  0.5087582478021693
  0.8456232716104344  0.8280676309730095  0.1696936278565518
  0.8241182315616711  0.4895268922319385  0.8383680265680209
  0.8320579062746556  0.4881247205442830  0.4985397708202275
  0.8184195052593556  0.4941909733979797  0.1911455915328917
  0.8395056022861216  0.1840038068928193  0.8406429827230345
  0.8266595817140505  0.1626814167709732  0.4838475750697544
  0.8267187713833742  0.1713109223838239  0.1581720469850630
  0.5122186334298254  0.8548531830394697  0.8332338288218255
  0.4887457190603981  0.8428751696563845  0.4881758702458026
  0.5069147613305967  0.8294744989682172  0.1643467501306205
  0.4824402379194012  0.5132065655898990  0.8350901658381211
  0.4850812226656285  0.5151321326571817  0.5124159426480700
  0.5074058493530965  0.4971249915413095  0.1544249704753803
  0.4914580390989292  0.1740032223871425  0.8555037192350629
  0.5027196631532315  0.1589414758147915  0.5028615478452763
  0.5047853907097059  0.1823584191049850  0.1507746338527350
  0.1723547100358802  0.8357426120758452  0.8282299940956180
  0.1848621106392629  0.8387139982525440  0.5027957590541334
  0.1632907048822650  0.8451363607720207  0.1688058030594032
  0.1682972824949957  0.4848630944637668  0.8340767350566524
  0.1699630951721418  0.4902891110447667  0.5197238425390339
  0.1702785777290527  0.4993383289024035  0.1807945855615308
  0.1428329009322654  0.1648913533576327  0.8457724841616774
  0.1605789415181206  0.1587718723112253  0.5006762263878567
  0.1670232066443715  0.1516903061044977  0.1606456751679754
  0.6608706944426779  0.8476762534496425  0.8309386299618449
  0.8555783100299356  0.6689198084055771  0.8110539779602814
  0.8580521305185451  0.8223065571393956  0.6698283986040898
  0.6488190785843327  0.8462445274127353  0.4907883532634363
  0.8629238208667280  0.6461135672815336  0.4709733361669594
  0.8173008124120582  0.8358878737266884  0.3525420142534706
  0.6810578534272684  0.8284580722664132  0.1622489176440684
  0.8150505523571042  0.6758717605724008  0.1969233453553985
  0.8144975216574052  0.8357562961444029  0.9889186435316281
  0.6671287671686421  0.4885276718293565  0.8283995469924218
  0.8092820292080626  0.3325557474869048  0.8475533563738558
  0.8319210655890785  0.5223260256337714  0.6660841864371599
  0.6236369511783101  0.5094252687874696  0.5361464656809076
  0.7815347057432090  0.3255148286317510  0.5131336275099707
  0.7704065620854593  0.4855637349680853  0.3436407705691427
  0.6710314797154637  0.4835562659165059  0.1349012560247314
  0.8265149678297661  0.3303179164528007  0.1779093725798765
  0.8591967340282003  0.5113472326532683  0.9901108724328099
  0.6637430533066782  0.1672853366178524  0.8793800707144829
  0.8356511483479412  0.9971198702584091  0.8445104729632135
  0.8365217466031628  0.1580312625859494  0.6750099237944980
  0.6529921122132839  0.1349364718239535  0.5075927133355781
  0.8817359333883189  0.9990299440653778  0.4752886760118287
  0.8302610018401430  0.1563928484099762  0.3304656440997180
  0.6642083116376400  0.1696062234704362  0.1657207743370195
  0.8246977397194669  0.0075838811302483  0.1751483081077849
  0.8420679238808468  0.1576204267672912  0.0035134984397600
  0.3151722971669083  0.8416718623023252  0.8237610526054590
  0.4859557075202037  0.4897257160801245  0.6871802833601796
  0.4851725172650297  0.8341312117896506  0.6825416270315772
  0.3228163069311444  0.8646150250827656  0.5437697064298477
  0.4939316976458991  0.6841101771252884  0.4947888380752486
  0.4927791994813067  0.8232930246378483  0.3248955197020580
  0.3626112381987596  0.7907153869137645  0.1424279390709787
  0.5246640913560090  0.6747250518214289  0.1744462303714137
  0.5010149439971388  0.6934691083689206  0.8648548572801953
  0.3297649797797635  0.5114033049460268  0.8275376935857458
  0.4615589565814915  0.3371096071244005  0.8458947500996782
  0.5198032106122785  0.3307751991580057  0.4800013801552006
  0.3425453330169214  0.5252619465913680  0.5435933924695849
  0.5257536347081539  0.1597672061144536  0.3129650766756453
  0.5313349938070707  0.5127030890319592  0.3193059015795148
  0.3281930122828446  0.4687125332766497  0.1754558352816438
  0.4750372378005024  0.3370763686028446  0.1768744238030276
  0.5113217196581468  0.5109165893477999  0.9973677912294604
  0.3414585021872421  0.1539567805661302  0.8310814624880923
  0.5095967577970871  0.0235345354844636  0.8452523276148448
  0.3280946327367049  0.1530392091140326  0.4846404008524926
  0.1661654220213940  0.1559571646709711  0.3369410425062082
  0.5251144510561153  0.1652861670753095  0.6618734608915601
  0.4883664922255460  0.0021167607879361  0.4651734773106287
  0.1583058578133165  0.1529441696142124  0.9941774945898413
  0.5162562433625473  0.9083277094699053  0.0347069488543823
  0.4876555684271043  0.2031778184938105  0.0056891818392772
  0.9969223429800769  0.8200042328472664  0.8491946348925817
  0.1720939637532000  0.6564588850527987  0.8263896893016561
  0.1504966372124920  0.8432562183346839  0.6664411867819583
  0.0264120996581298  0.8341138030633788  0.5019452415622392
  0.1872374301255030  0.6744545687976596  0.4942019615728447
  0.2117426009920185  0.8393980397387896  0.3382494499844564
  0.9953039570629150  0.8461048527484628  0.1829510814070774
  0.1332748928066350  0.6691386320462706  0.1548237618845831
  0.1737777519523568  0.8303021017180890  0.9884918589917941
  0.9894270551040643  0.4784019469215736  0.8208065893301123
  0.1670894306536711  0.3243941924847767  0.8395955441972208
  0.1297487046935525  0.4886955243389429  0.6735875498872852
  0.9836802681920653  0.4640398287182926  0.4823291292847683
  0.1626609745734460  0.3103375771848582  0.5308691115251857
  0.1673856522768060  0.4889142670088166  0.3438812134187410
  0.0135930904454992  0.4991712456156056  0.1492457428319860
  0.1653079005535811  0.3070174294442824  0.1784163713684805
  0.1823194851964704  0.5013354336890397  0.0074467610238840
  0.9974509461118491  0.2105229852046186  0.8200828721421314
  0.1272292773906522  0.0265783627112251  0.8075468078685156
  0.1682713111045230  0.1761647384235209  0.6574881217729149
  0.9826455028647303  0.1921822645535947  0.4679956747517206
  0.1489252972394270  0.0158809850803426  0.5112051050077627
  0.3607722694233256  0.1465971909280331  0.1639975128631770
  0.9756939416351461  0.1401347478527218  0.1612340901159567
  0.2156366091757043  0.0060033193399018  0.1683116381457483
