Cl O  Li
 1.0000000000000000
    11.7780000000000005    0.0000000000000000    0.0000000000000000
     0.0000000000000000   11.7780000000000005    0.0000000000000000
     0.0000000000000000    0.0000000000000000   11.7780000000000005
 Cl  O   Li 
  27  27  80
Direct
  0.6881707035747843  0.6632934418252112  0.6511333126772003
  0.6745254605252053  0.6764062612487475  0.3411801720841637
  0.6620753062914694  0.6593601223084794  0.9621830109625654
  0.6750463862948267  0.3351937486071944  0.6747183716321450
  0.6544713365976581  0.3441367934772792  0.3121171335245690
  0.6641013581462086  0.3386574576113963  0.9964003435300038
  0.6843791639636414  0.9876965744467031  0.6546589846013062
  0.6689606194735418  0.9797245050799260  0.3542108061255339
  0.6677998217999129  0.0059628455917807  0.0074797576199293
  0.3371627055142801  0.6531141142346757  0.6789446435751595
  0.3240865658721441  0.6634279343570121  0.3374276604081975
  0.3140575808513986  0.6768128562207150  0.0147277808547697
  0.3217230883683097  0.3252987500506255  0.6698184224678281
  0.3106043980537795  0.3416838229747856  0.3151261711325066
  0.3230325889526263  0.3383704160549639  0.9939663230459896
  0.3411357209754523  0.9867340085221401  0.6518150464950797
  0.3236335948630971  0.9956659920191294  0.3347640240751121
  0.3488743046572944  0.9645931147463050  0.0019916194984545
  0.0066013728553676  0.6679961055869196  0.6541287067019903
  0.9959509775938370  0.6709185449030083  0.3373171352390775
  0.0153383393978738  0.6815860050811186  0.0097791467198381
  0.9853917611687383  0.3064285004803694  0.6744756211141805
  0.9984282051827263  0.3315619239382414  0.3338950857216978
  0.9960091652492645  0.3643976763933596  0.9944204776206929
  0.9865626574218076  0.0276475440752182  0.6738041705904244
  0.9956107986205738  0.9881850865849959  0.3262460962520397
  0.0023466671865966  0.0075954317664770  0.9903605893259857
  0.8226530330523621  0.8495309833439384  0.8319977115603016
  0.8424099131001738  0.8157975681370577  0.4939351055105516
  0.8228577272849886  0.8279542031487718  0.1448816317067858
  0.8593386443516332  0.5265499212319971  0.8374400842469147
  0.8535660726615980  0.5069276146868062  0.4991302337986976
  0.8341478125824747  0.5137070180364912  0.1607288154745621
  0.8324814331095894  0.1770011792871556  0.8540026654509305
  0.8438685214492774  0.1745907184650929  0.4974496844323356
  0.8568954308329337  0.1739049968343351  0.1774145836596548
  0.5017676577002467  0.8551539209588573  0.8225785380266877
  0.4833059464016349  0.8025926848913314  0.5023425081645041
  0.4784378592549361  0.8295907853599455  0.1720650642607253
  0.4780384302005269  0.4846244857520131  0.8544829033835681
  0.5008638614088791  0.4713973355308231  0.4888394903600235
  0.5022000823637521  0.5079306407179222  0.1746333776961210
  0.5091236947436220  0.1706392007565957  0.8368906162632901
  0.5451213374718838  0.1751683845367367  0.5097154276238219
  0.4967124874742426  0.1603091662275807  0.1757175567314496
  0.1586131206722725  0.8321222570723013  0.8179123516193300
  0.1646438172146947  0.8320301122792912  0.5129217101489583
  0.1558138379732032  0.8399095447022938  0.1550121035288834
  0.1599737745720408  0.5094449974765048  0.8407288760374967
  0.1711840428838417  0.4882284159735215  0.5152034273674309
  0.1492217201298733  0.4925954961722866  0.1677560198971007
  0.1670351385592112  0.1674905289697956  0.8446877013624867
  0.1657719229198018  0.1570458498811999  0.5004983167711886
  0.1778720301778955  0.1753124113825771  0.1639428813197581
  0.6734263221309060  0.8124733920981937  0.8592117612055039
  0.8309357001583080  0.6581721589247849  0.8520286778333668
  0.8498299170912449  0.8331949584939135  0.6704931118243789
  0.6546445331813558  0.7816693392125003  0.5239164948663851
  0.8343374462426056  0.6633848578808423  0.4906912525249966
  0.8546998260813907  0.8324579620914742  0.3254017325424554
  0.6602909928194465  0.8329075120833818  0.1782327128236018
  0.8234185311833951  0.6664889957167149  0.1537544647546924
  0.8012837000976978  0.8341413454365317  0.9732152978212821
  0.5061452641055945  0.3176305097685438  0.8474987653158470
  0.8558692066619257  0.3270795412919842  0.8222626708583821
  0.8848831566619753  0.5154465141597171  0.6462572094193346
  0.6629402770747101  0.4958818183528624  0.4737609423425498
  0.8475309935735503  0.3497073429717434  0.4945816575071983
  0.8338963172159645  0.5003088169583297  0.3225163576191614
  0.6526143113293935  0.5151636426005080  0.2006894434036847
  0.8398975505013071  0.3688807877769957  0.1505744572606033
  0.8229121396759400  0.4883831916956994  0.0087332845946739
  0.6750992602402005  0.1692112803482222  0.8762812197418938
  0.8081155320532472  0.0040983147080652  0.8456426712120109
  0.8461031541359968  0.1689690156551768  0.6622912131112516
  0.7038498931340393  0.1451792118608433  0.4960040314144109
  0.8261441709217945  0.9790572270837313  0.5181354617256738
  0.8476249197245973  0.1182168094024386  0.3554869467320648
  0.6983555371810709  0.1605076257070774  0.1884631330014742
  0.8367435751258057  0.9783338325138609  0.1484185686962058
  0.8442281938311313  0.1589919126872618  0.0141851966560027
  0.3213696102541756  0.8879194109850350  0.8339017403894995
  0.4822393582769226  0.6668238505422794  0.8429877189993565
  0.4802401077635599  0.8311583804325915  0.6732111807911205
  0.3302935864961815  0.8383029216944714  0.5148101116099215
  0.5009724432783222  0.6299899411864200  0.5050731276083252
  0.4846042325273998  0.8094076749163482  0.3341758317968854
  0.3202077194744786  0.8302974986757542  0.1533801467757948
  0.5079107113765882  0.6729713576137136  0.1436052987945577
  0.4758682098010126  0.8484477557157434  0.0082657869144749
  0.3298248666626701  0.4672209820982573  0.7922931032422493
  0.3542157877023518  0.1417140959886463  0.8339340477466268
  0.6164002740850343  0.5116401164031286  0.7538701010610690
  0.3385241286368371  0.4951697204775326  0.5326047852944600
  0.5093032475366794  0.3328700277759153  0.5121959686904807
  0.4998083662864887  0.4765693871353067  0.3306390263850477
  0.3091291502011931  0.4697617249694879  0.1355464755201373
  0.4970324841543614  0.3466958357537999  0.1705227118411731
  0.5350518063130892  0.4988264841590048  0.9812610772026893
  0.1510483408552773  0.1983371117786246  0.0020625868580877
  0.5203139025348006  0.0104679842013435  0.8078816054832523
  0.5481013470408987  0.1539857399286305  0.6771125573194144
  0.3478305098183749  0.1405833890959509  0.4969734140698715
  0.4919138732909907  0.9456572029018122  0.4613100188860252
  0.5170381470462175  0.1683147714306427  0.3409774616366240
  0.3424468814615760  0.1870000634056152  0.1551945409073987
  0.4601480085214945  0.9921269516861464  0.1778679595228011
  0.4957592180119358  0.1782101748413109  0.9997798452141983
  0.9981885747298109  0.8063596093732343  0.8489518676491996
  0.1780606314600732  0.6613640691293945  0.8365126444761457
  0.1849769564661549  0.8115739682310991  0.6643059290512093
  0.0022086758297591  0.8291525712828194  0.5195950012392060
  0.1952883272211904  0.6577792075359652  0.4965201799056600
  0.1696040187903459  0.8175737440416839  0.3284979757233910
  0.0085384523285159  0.8203599499533447  0.1655648280552407
  0.1826105640128053  0.6464356814973663  0.1659209782064304
  0.1533545618681124  0.8129145211248350  0.9956138255639085
  0.0095819239167404  0.5408526068534948  0.8716890406638956
  0.1140538562422671  0.3315238676529035  0.8449305328512711
  0.1719654112955687  0.5061965696396273  0.6683615549913516
  0.0329139389382448  0.5404954445670567  0.5053040563865892
  0.1486178802407070  0.3339022640302985  0.4948040033785560
  0.1823002028602509  0.4930163420085509  0.3319043978725361
  0.0047457076438431  0.4978029320250525  0.1567018329619480
  0.1606208326363115  0.3500867722336453  0.1775462219700553
  0.1642968774942649  0.5004778030593945  0.0034188508641285
  0.9779404379175759  0.1595353281021015  0.8473214392203358
  0.1529266513278146  0.0075661740993698  0.8214438939278761
  0.1900684421048698  0.1723278067195347  0.6928486288796267
  0.9958349815174075  0.1467920190150332  0.4867915358985102
  0.1540600606216230  0.0049108094416016  0.4866482985181634
  0.2007089794853739  0.1657894028938347  0.3352169141133393
  0.0134435804623817  0.1345106990620747  0.1605462161544071
  0.1977823296866521  0.0115152595203482  0.1544797102668983
