Cl O  Li
 1.0000000000000000
    11.7780000000000005    0.0000000000000000    0.0000000000000000
     0.0000000000000000   11.7780000000000005    0.0000000000000000
     0.0000000000000000    0.0000000000000000   11.7780000000000005
 Cl  O   Li 
  27  27  80
Direct
  0.6534870167090422  0.6834114118680233  0.6712524917676962
  0.6961950756484613  0.6588311000806700  0.3302892275524020
  0.6913865425397753  0.6754865548150745  0.0053611417384975
  0.6638415246683622  0.3381059254956634  0.6734945737698433
  0.6355007660646957  0.3300178312698608  0.3388485921925419
  0.6293623277250866  0.3434303236977288  0.0200201147820280
  0.6712748078738917  0.0005955062778491  0.6449721571318027
  0.6543610562241081  0.0130009595583416  0.3169569367216133
  0.6632516522456233  0.9980523192581401  0.9818561610266490
  0.3371075055409455  0.6354132458687529  0.6817867954325333
  0.3260479239249190  0.6941478186992514  0.3419450175578221
  0.3162142405216953  0.6625045032656252  0.9955954864756537
  0.3428316161952896  0.3648464173008671  0.6791028556663661
  0.3578051045739844  0.3370895392792694  0.3091148925746847
  0.3388829122227829  0.3029374644482608  0.9950473507150496
  0.3484971444614592  0.9932064938680827  0.6842255555561402
  0.3159929877564058  0.0022940925269213  0.3332999048194419
  0.3592780042727947  0.9790840657388091  0.9770531605022644
  0.0104713636875514  0.6561650143802836  0.6903292978994356
  0.0156691311183574  0.6948224675703920  0.3294127589127400
  0.9982347722052636  0.6399038875386368  0.0119818947857569
  0.9752130313559406  0.3227224008851566  0.6601736998246560
  0.9955305628492868  0.3359006852165562  0.3220184024288620
  0.0295948279890709  0.3271321931914021  0.0020629650819714
  0.9978353711427198  0.9954139083402200  0.6719799740988009
  0.9939126070896054  0.9893821825827673  0.3467689756076928
  0.0108982304633744  0.0010578442823274  0.9926523243229395
  0.8336049860891894  0.8203513676702372  0.8350389706637310
  0.8413009386343712  0.8253140692199519  0.4975766417870732
  0.8373398461264245  0.8387573305593697  0.1492904879577872
  0.8364694098128427  0.5027296831545444  0.8463628207931021
  0.8129413948004951  0.4849289771439257  0.5028985703791327
  0.8300103675119659  0.4979371822681924  0.1865825200911075
  0.8293488359136438  0.1730564839940311  0.8452573261894430
  0.8120905534253214  0.1530243436440780  0.5029724562522623
  0.8142453488836506  0.1712041347906140  0.1636407338146049
  0.5033763878324962  0.8476221778601669  0.8156947988847870
  0.5056305749722134  0.8618197633574760  0.5108094599656540
  0.4969647944320620  0.8358305593044183  0.1735869869001502
  0.5167792447327999  0.5115568385386929  0.8478180283677711
  0.5053581891341773  0.5175990025734788  0.4893364033907384
  0.4945973696007591  0.5171874683814993  0.1727551331822355
  0.4990431534364358  0.1655057627356354  0.8134946597673317
  0.4740201336914541  0.1888882023352127  0.4950294617356631
  0.5015585119556378  0.1574676983551588  0.1585118194144060
  0.1893057393502328  0.8348009343589756  0.8317611909046513
  0.1805531378484777  0.8042261908351489  0.5134192304608221
  0.1666041530108688  0.8231241324257997  0.1519127178378625
  0.1567138203977949  0.5059700139094351  0.8326100080093284
  0.1816744622474208  0.4831201295134828  0.4938877731755232
  0.1765521874544512  0.4976939459253086  0.1613894717457552
  0.1513557788200743  0.1753750024501337  0.8365269714204467
  0.1685933935066254  0.1847426987850166  0.5048789951768760
  0.1552891793076259  0.1452097486050847  0.1593536527858695
  0.6842410296280571  0.8321744029040948  0.8110922555418456
  0.8354849665848867  0.6504039810320796  0.8490468415300892
  0.8335136510043782  0.6679948511630102  0.5220904360459047
  0.6696370920712400  0.8522792955356996  0.4944914106376397
  0.8147130363392087  0.4949746219108591  0.6861874785215436
  0.8475756913492282  0.8410607884429770  0.3360969608209649
  0.6825608851157943  0.8268300049095222  0.1812602676157687
  0.8573101652554084  0.6639251767856206  0.1673770007198352
  0.8138665673883078  0.8331120449981672  0.9916107726287643
  0.6514264712850393  0.4433313115427676  0.8389015216838981
  0.8574704874787473  0.3231837118886501  0.8343081280436019
  0.8087812760173129  0.4943449928155649  0.6628628217232949
  0.6640564212242921  0.5131434617540080  0.4778087901931695
  0.8116878045672976  0.3095313838923328  0.5030009984662658
  0.8204953245276282  0.5087135481990254  0.3458311310865707
  0.6482618482467252  0.5036613738933564  0.1695200452879312
  0.8106567221470975  0.3310636706219818  0.1758941694414713
  0.8288043881208507  0.5121318123305763  0.0274122433031905
  0.6773663236233873  0.1291905625732035  0.8191521719223344
  0.8586136335136447  0.9794763579745484  0.8403674983776098
  0.8184451433685682  0.1429594986714834  0.6781580071693256
  0.6564999004309234  0.1701246115774278  0.4658970919115563
  0.8241349628806984  0.0074969427744276  0.5178463100371093
  0.8220269685562528  0.1467351376378745  0.3557500970058205
  0.6577594420193813  0.1762010262690179  0.2227601002238211
  0.8076833116999017  0.0105187193696348  0.1468817174015891
  0.7955529112338250  0.1803645660693396  0.0040710355632929
  0.3369537621967210  0.8587451393854453  0.8222856616804091
  0.3407922041552723  0.4848632288381928  0.8258469202798470
  0.5010471812281708  0.8323860606272300  0.6485683951254237
  0.4799014491925720  0.6915959423402888  0.5084063270027892
  0.4909960709308964  0.5229320646532701  0.6626733500048035
  0.4778198918408133  0.8369591305917394  0.3287269158257524
  0.3236883532631433  0.8190409359214922  0.1593947454769526
  0.4959725375199887  0.6923222505945056  0.1604720723566498
  0.5080879583843898  0.8423861188225776  0.9863392243338607
  0.1996144583109176  0.3504028829382089  0.8641928382405129
  0.4892788417831342  0.3473569226364115  0.8507069052790246
  0.5260084202375934  0.6707627576693808  0.8374825890365298
  0.3293093273356805  0.5310470816766790  0.5027154143845910
  0.4763919714324397  0.3639096254004034  0.4931111415567584
  0.4927642712097656  0.5532735312450570  0.3459470408152119
  0.3317449700827222  0.5446618796979873  0.1560453976344619
  0.4983819052359832  0.3224463308748165  0.1882591221300010
  0.4846907517315391  0.4998404823600116  0.0143047641582583
  0.3408753207018668  0.1675901237020320  0.8446875345300315
  0.5063858302945330  0.0074293422611903  0.7885424490043244
  0.5081737469680402  0.2033224857817010  0.6484535785028507
  0.3018598752744168  0.1343121693569093  0.5145411216555043
  0.4912915334525951  0.0243724901140933  0.4988832679072844
  0.4394413021543307  0.1724697491905620  0.3239090913154867
  0.3112273691822501  0.1713057329268435  0.1739463353987247
  0.5161600203878587  0.0103684881347221  0.1552135236738422
  0.4867877340244828  0.1365562857509056  0.9815922872460513
  0.9712987323908635  0.8200872408558275  0.7933170553394856
  0.1722827378217421  0.6692505871229343  0.8352246367536885
  0.1896401488362880  0.8114178571141919  0.6733399195038954
  0.0205179851649994  0.8188043391858378  0.5231488056324004
  0.1606477573170281  0.6495441114104906  0.4834616465260297
  0.2760314995123220  0.9118147102601029  0.4952071926852735
  0.0127080952897419  0.8677853694820765  0.1602537851476380
  0.1561869533942657  0.6686656944056172  0.1709223384318165
  0.1634595803718245  0.8344874153444464  0.9873161954733458
  0.0016450907588225  0.5050629787852728  0.8256332382862153
  0.1656771180941991  0.1204532847991086  0.6711873507431123
  0.1538396801757575  0.5074363549718360  0.6598810712816529
  0.9940879013236055  0.4721394742041227  0.5085160424637104
  0.1786769832240195  0.3291970705542679  0.5271709906239374
  0.1804971465265389  0.5011533837187625  0.3473928557747764
  0.0184362519547414  0.4784464128198772  0.1685721502637930
  0.1631058593452308  0.3353204078359717  0.1688213480832895
  0.1296873598995220  0.5023717921307274  0.0032297800577978
  0.9980142016823899  0.1695447592936475  0.8878121883376716
  0.1713770589588127  0.1807916061733238  0.9961018340918634
  0.1755832096530899  0.0147835043240181  0.8445861590635565
  0.0133189695188842  0.1569943125781525  0.5114845541763040
  0.1706790904915498  0.8377898205970311  0.3336411158543661
  0.1380994993464368  0.1407956952094437  0.3260332595612009
  0.9929625802556005  0.1435920022308829  0.1638637881806365
  0.2001677521657811  0.9887713956502903  0.1357210740810148
