Cl O  Li
 1.0000000000000000
    11.7780000000000005    0.0000000000000000    0.0000000000000000
     0.0000000000000000   11.7780000000000005    0.0000000000000000
     0.0000000000000000    0.0000000000000000   11.7780000000000005
 Cl  O   Li 
  27  27  80
Direct
  0.7049339787313611  0.6604824942966909  0.6659714893271278
  0.6711773248991784  0.6434471649608753  0.3643174124310601
  0.6734807018119657  0.6508771283627902  0.9878165487915992
  0.6750419406752521  0.3318365516851391  0.6632429346392131
  0.6519180105394562  0.3089691978348001  0.3327696425648784
  0.6806048384272387  0.3112490324817108  0.9899278502679687
  0.7063989028044145  0.9500579619302525  0.6597365337702358
  0.6615252792876237  0.0345055777112956  0.3313088075182284
  0.6866626703156693  0.9972087303445314  0.9997459028237429
  0.3161480730115658  0.6897406927748728  0.6705736278159699
  0.3427401655466564  0.6653515935786380  0.3398781518119171
  0.3158241087612736  0.6754252137638360  0.9912517839009266
  0.3290977159903630  0.3386524728745845  0.6760284295234328
  0.3013023970720328  0.3178262112087751  0.3428472303202498
  0.3165628460363401  0.3248773323872322  0.0042282060806415
  0.3512029927268085  0.9940261842887226  0.6457709701572588
  0.3386740538853409  0.9989078672584371  0.3156618645879859
  0.3219863322792190  0.0238715179963809  0.9735870076541615
  0.0048450957142278  0.6707948569442699  0.6760097252640432
  0.0074004664701351  0.6695073399375474  0.3179180962409049
  0.9828511475292557  0.6893376200335694  0.9996030366123695
  0.0038761428999554  0.3664562734862958  0.6948965738523724
  0.9861768809912332  0.3129710186651403  0.3400997689458960
  0.0072987823024096  0.3408115193009569  0.0180443563905033
  0.0095095678175086  0.0093530286927370  0.6580270778211809
  0.9789621279071753  0.0094624715097257  0.3390688889527456
  0.9986808983744022  0.9914070844369027  0.0192763274147961
  0.8385225522992352  0.8317193817266576  0.8581803858986663
  0.8355446074861271  0.8172207467210791  0.4870386493519795
  0.8078675666929193  0.8410098116566814  0.1714465794071000
  0.8322354110489384  0.4954208059585535  0.8484454261675666
  0.8570571778211383  0.5030863134754648  0.4995002204713169
  0.8256912684163803  0.4906000057706577  0.1678777297932994
  0.8375262063607585  0.1674589453186572  0.8163169335812911
  0.8219828048664222  0.1487256275261505  0.4980002765186706
  0.8365373097377098  0.1711811739079928  0.1511377111588952
  0.5053001794341495  0.8234172816239435  0.8264012824001215
  0.5002706769580438  0.8285862158518621  0.4814227966837991
  0.5033916567244490  0.8185850240650364  0.1428529489329854
  0.5031372868938334  0.4845278825325207  0.8312623655709016
  0.5056109049553934  0.5110654209777250  0.5137412063280751
  0.4678440093276041  0.4970247164439105  0.1538838770001311
  0.5086307521677833  0.1616297547828293  0.8372091864652931
  0.5023874566164451  0.1674932263395189  0.5193630913223357
  0.4919829491758563  0.1780040990733568  0.1579725086707223
  0.1607141592817277  0.8527686370303836  0.8202669330869157
  0.1653853760012697  0.8387556650023738  0.4916190876610970
  0.1650832232655795  0.8388765544364369  0.1490319232892910
  0.1692248199737169  0.5151008042129004  0.8472282728033096
  0.1881024986166959  0.4982766872607107  0.5008430405480091
  0.1581616452775588  0.5035769966438652  0.1746213440406026
  0.1468399003895045  0.2017237720163321  0.8339056579854951
  0.1808211976400588  0.1707085877178328  0.5198721548668465
  0.1592629597626420  0.1660417231798587  0.1829501645138731
  0.6891441830321662  0.8560943515148252  0.8409864752121389
  0.8201165084392830  0.6601985701168235  0.8762655423994815
  0.8377988351112543  0.8052755265200404  0.6922545769708968
  0.6670492705606640  0.7865770970295444  0.5162578603803949
  0.8539487080464025  0.6720475564984488  0.4997851567864326
  0.8135543902847140  0.8442537456130563  0.3335411527792865
  0.6566648033979926  0.8571754739017039  0.1779428277997061
  0.8505472858453844  0.6609628941709682  0.1823210010007931
  0.8279652529215554  0.8284086468438914  0.0100390744381361
  0.6803643550922305  0.4850286870534047  0.8664173044913863
  0.8342657543571307  0.3382054734635027  0.8267025748208507
  0.8444083211954460  0.5283153229861911  0.7082772447480322
  0.7055815833486659  0.5054055201835362  0.5163319891659841
  0.8548089420366810  0.3318063293266234  0.5215518540395997
  0.8590071980760211  0.4798536800139960  0.3346690358146389
  0.6443198302592652  0.5003574349042706  0.1793245543553450
  0.8126162623657224  0.3305992568294399  0.1578543418804773
  0.8336133724614534  0.5022374558853778  0.0001063151713511
  0.6744630802840151  0.1786867438129596  0.8605275680250022
  0.8373558437557562  0.0171952094779241  0.8302546027468235
  0.7968912433224220  0.1535929960568230  0.6713403809947105
  0.6551105685106247  0.2008907442215293  0.5059543640375915
  0.8066659597260768  0.9821754273029971  0.4980293450430033
  0.7959710909254412  0.1710632803942649  0.3151008177771199
  0.6490525341951446  0.1463536784502874  0.1467393762236611
  0.8242765462516451  0.0273440680019771  0.1797310076283778
  0.8388789048774746  0.1927096550091081  0.9707287680768758
  0.3484108354598875  0.8408202589673702  0.8327249414901789
  0.5075906010157580  0.6517645280631345  0.8006517519738734
  0.5012836219145935  0.8184327989236843  0.6614431962260052
  0.3061458083613768  0.8263578988890925  0.5089339282670972
  0.4838305641190784  0.6613847926278908  0.5229093298346881
  0.5059509823988392  0.8058602168103078  0.3356027508239476
  0.3390526734390442  0.8236418137074376  0.1551335401485651
  0.4504599791560265  0.6665271684268929  0.1608908589604076
  0.5088538267765198  0.8130231384482980  0.9824377635019635
  0.3208698256440580  0.5415759141559865  0.8441988305487652
  0.4741194098090201  0.3340172375631213  0.8311807469844746
  0.5151450570532201  0.4810348013634116  0.6662188956672347
  0.3404543593017804  0.5059337333269457  0.5489161045556572
  0.4614999051055300  0.3658417454489071  0.5017297519963844
  0.4796644534952260  0.5355683246612843  0.3336609491072813
  0.3192193771799821  0.4608509216970257  0.1697896532774345
  0.4868322738678180  0.3361062644730128  0.1666357285086954
  0.4724203990957281  0.5190193060695963  0.9888722286286722
  0.1453731038662417  0.1974357193377583  0.9808932018543195
  0.5161171117457363  0.9999103655559086  0.8541669052702652
  0.5071156261864117  0.1501924847775282  0.6763496812512594
  0.3435932336193765  0.1617029928894000  0.4889096825720812
  0.5010568226481429  0.9982206675939244  0.4684633764785029
  0.4853035447887085  0.1798044447677136  0.3250667265291882
  0.3175145163249546  0.1428390691644460  0.1594918754987844
  0.4849035489385602  0.9888141944599236  0.1773839064728617
  0.4663196121873576  0.1569657343449030  0.9841748368264389
  0.9972627328939230  0.8504510092532994  0.8168951462059690
  0.1383056265821712  0.6928865710683875  0.8450851371430412
  0.1535949416437614  0.8072300001700163  0.6567919084495033
  0.0056996459325023  0.8468388200081645  0.4762884774813740
  0.1979435908499376  0.6466998437657960  0.5126367238596645
  0.1763674786640349  0.8337568504669981  0.3079566003985195
  0.9923375274759448  0.8292685569508904  0.1607803641553451
  0.1449860329832148  0.6803498590282124  0.1434730234715352
  0.1586690387989096  0.8368399763751149  0.9854056223873220
  0.0219257105113928  0.5135054361490397  0.8817953635715522
  0.1733597163465102  0.3561871087711166  0.8285104103160452
  0.1890180559196492  0.5045158937856457  0.6841093983170869
  0.0085560092640714  0.4679446132840285  0.5074107456891489
  0.1853897129959506  0.3357301550147255  0.5010720260265960
  0.1848282208455755  0.5014970182230940  0.3323422988203197
  0.9868129017206209  0.4921878030628609  0.1912589649519311
  0.1454566859950505  0.3247599651838334  0.1648365670125792
  0.1783168309096540  0.4816286413563242  0.0029216666245109
  0.9889108885577984  0.1840070327459167  0.8121777052696348
  0.1751320663798977  0.0268364442198573  0.8328469645157202
  0.1662269158535111  0.2075411812978692  0.6880373737597075
  0.0015763065627838  0.1393049762750738  0.4808402521202582
  0.1842812022292517  0.0223156991173494  0.5381152854372243
  0.1476221088734875  0.1362817181668969  0.3455680927802769
  0.9971781250292984  0.1887049799573676  0.1532543086329518
  0.1487400223766437  0.0027931603250499  0.1929916392835832
