Cl O  Li
 1.0000000000000000
    11.7780000000000005    0.0000000000000000    0.0000000000000000
     0.0000000000000000   11.7780000000000005    0.0000000000000000
     0.0000000000000000    0.0000000000000000   11.7780000000000005
 Cl  O   Li 
  27  27  80
Direct
  0.6474772242313919  0.6817567115778148  0.6658574337711033
  0.6639868505192138  0.6604477423693620  0.3094623863366608
  0.6893994613639909  0.6591145173348240  0.0151538721493172
  0.6955521910533069  0.3567340107283098  0.6594940989793104
  0.6847323033067949  0.3717975386586980  0.3516000868209291
  0.6763655884898261  0.3390521901239625  0.9840919170809916
  0.6689221434464031  0.0065137600619355  0.6720074914233635
  0.6569918218762203  0.9951280823857502  0.3371892039413826
  0.6837278602863314  0.0183341295845828  0.0111188305097881
  0.3166784092184824  0.6664487732276549  0.6902358448191153
  0.3115135032888522  0.6514228157576855  0.3480079783391215
  0.3670486761139029  0.6615828318076825  0.0456171681957791
  0.3202454774742459  0.3158773698278796  0.6477697671748720
  0.3368634427190514  0.3431155690201074  0.3180521352769562
  0.3115138879002466  0.3164812299597507  0.9765403595458472
  0.3449043309568711  0.9949191080861922  0.6832487918018787
  0.3262167110708274  0.9972786768502144  0.3308939656090991
  0.3043921196814546  0.0069565711308427  0.0049896532077014
  0.9934930248336187  0.6635315565294476  0.6588827288038966
  0.0068175032454590  0.6466816908565398  0.3424516797089540
  0.9799337740599088  0.6578885786366114  0.0246127681959218
  0.0062185544998804  0.3168649101896956  0.6660641522742263
  0.9991892839771932  0.3391009952856380  0.3559798794384135
  0.0175715528592348  0.3426577195191633  0.0059163484264783
  0.0224015255228188  0.9904302888923401  0.6670105392168446
  0.0095809614174129  0.0105394925875180  0.3334965499440038
  0.9858325539547371  0.0195192830277941  0.0157803294657769
  0.8462419637189592  0.8215865969119405  0.8252155780431430
  0.8366547757341188  0.8322301302127798  0.4812585392194563
  0.8273385161125572  0.8572625020874566  0.1815132279455489
  0.8357168907275869  0.4989683650438281  0.8219046002479172
  0.8301435072544272  0.5116430918464682  0.4946944322142662
  0.8285014190275025  0.4784015338848762  0.1627082408561064
  0.8304981594454494  0.1696633199585501  0.8146871042773361
  0.8253680912110676  0.1699305337854673  0.4917082283775315
  0.8195785156488601  0.1707013759906114  0.1925966149826165
  0.5164162357765196  0.8196356859780389  0.8323904023916535
  0.4898165522270664  0.8286299246489853  0.4786937480147250
  0.5022018083486781  0.8477925598497851  0.1517797914828563
  0.5093642846471588  0.4840982359166949  0.8190567755423371
  0.5053005211396195  0.4940009267011513  0.5061017227735113
  0.5129199967454358  0.4962713080048422  0.1582259189379641
  0.5082106933764984  0.1518149524990866  0.8207028313394353
  0.4899919755083107  0.1594509157880984  0.4962182625587736
  0.5118614247318903  0.1921182084524810  0.1642415245438333
  0.1458286230356002  0.8225078829003997  0.8401618197409523
  0.1813847116404163  0.8425515615921840  0.5061707908828587
  0.1697073429115014  0.8491978893994157  0.1648642913621437
  0.1683611625457846  0.5010350237647311  0.8209214525530791
  0.1694191778849433  0.5042096466992989  0.4855479684019678
  0.1578212314089665  0.4868898668732867  0.1662723941623546
  0.1555199394947908  0.1460368140651855  0.8243546962863056
  0.1540453394087633  0.1570538556367237  0.4989064532929839
  0.1442164029198543  0.1761411474896362  0.1775766291106124
  0.6642939728389735  0.8015811364471339  0.8258018877498077
  0.8494149672371296  0.6627200669727298  0.8549792368643512
  0.8267221662317213  0.8040735802243133  0.6591374225177916
  0.6860117232315303  0.8257723834450209  0.4866562160135023
  0.8295569546353030  0.6857395042654861  0.4716466956199661
  0.8514563225768238  0.8628980711502749  0.3220333085482300
  0.6757235708590921  0.8689205997612429  0.1733809236520982
  0.8322406514890105  0.6805032832862570  0.1766446954593408
  0.8096853389357381  0.8539980015428350  0.0022568437562365
  0.6561717089271865  0.4814947001746566  0.8318653875956290
  0.8367701591524310  0.3244566128042971  0.7933201194764478
  0.8164083461093848  0.5304665402828405  0.6627069806262661
  0.6675094050667549  0.5095653401232433  0.4999391146441715
  0.8503878316378448  0.3331861376223897  0.4931603185756357
  0.8429390020349005  0.5248443718907103  0.3287751414374960
  0.6538741214280198  0.4737862376378055  0.1219045143864598
  0.8273645077457348  0.3203333964722697  0.1946435573088816
  0.8188975510537694  0.4975126311588299  0.9890446541591863
  0.6658556165563592  0.1702762184581890  0.8017292630030274
  0.8268260517936122  0.0248472894920198  0.8591180603219083
  0.8435913029597577  0.1717303025627325  0.6493325039983260
  0.6625597398190390  0.1559501828765119  0.4963759937158765
  0.8232800157083093  0.9943820767144316  0.5134611605913210
  0.8772452048215279  0.1888521492195772  0.3608439990149387
  0.6641847432029715  0.1790171095551207  0.1850360861336643
  0.8498230601692648  0.0099637103526051  0.1859940923889335
  0.8364912146779854  0.1710799044521422  0.0414999943111844
  0.3083392649656788  0.8615545223362038  0.8364638014267570
  0.5094299114966618  0.6485375015625064  0.8335442365747736
  0.5193462863496758  0.8562061567714576  0.6575487345465700
  0.3390177725951666  0.8171835656691542  0.5051703559179785
  0.5065006706317042  0.6520417567047571  0.5175524946630252
  0.5183954055265551  0.8457262654975717  0.3091646768747109
  0.3337570781856324  0.8378239993033663  0.1596618757002096
  0.5260930584589538  0.6846259935506601  0.1440024025355924
  0.5168859070171644  0.8708341831471851  0.0052295007952567
  0.3325805316875393  0.4578634068815674  0.7977642838957274
  0.5311024396863224  0.3247848685080422  0.8208714125864005
  0.5069099376407274  0.5050127557761604  0.6603965187667402
  0.3309903457561501  0.4950974335438047  0.4745137913806751
  0.4784410427146197  0.3205037185918622  0.4688554695174738
  0.5202534834154779  0.4977265155795114  0.2992184035464607
  0.3143393849022483  0.5067659764533541  0.1594255623624246
  0.4788102291678083  0.3444732877276554  0.1723597804000369
  0.5080132460322501  0.5085511806043955  0.9867501131871173
  0.3340127840347758  0.1468483339859608  0.8342457677581107
  0.5309992423764006  0.9907987200395995  0.8267548333288353
  0.4800202166145069  0.1504227908290372  0.6508524477434797
  0.3357130295530708  0.1715805065459766  0.5081713369293392
  0.4709945207800418  0.0031507563008988  0.4657312104328639
  0.4398726574263663  0.1450983217775045  0.3196678877447188
  0.1869461114322356  0.1625033132700753  0.9863990831751149
  0.5039482679624127  0.0303861389105058  0.1437334680787530
  0.4965451059018742  0.2022550263625859  0.9895765375580401
  0.0048112819668654  0.8574736739856725  0.8619072621539039
  0.1550704603523506  0.6589184464945135  0.8377457314469084
  0.1688100040430183  0.7846623646065184  0.6840767994058499
  0.9982886707721087  0.8549008261843641  0.4978055335406475
  0.1611621582861909  0.6886210938029512  0.4712657279124869
  0.1725968878320186  0.8076732999631884  0.3289246945417924
  0.0024086492202180  0.8341968304565556  0.1399498028798425
  0.1266099256633942  0.6343843285598950  0.1757418910605166
  0.1605730550862406  0.8003531329930146  0.0004484216179632
  0.9906329026847709  0.5223164628944288  0.7962298868592271
  0.1542939198257583  0.3196048615205066  0.8416009141224675
  0.1580615932877449  0.4971858329298423  0.6549015150472129
  0.0007413493368414  0.5018727073816762  0.4938574773346999
  0.1638010681551590  0.3451705274575393  0.5257730571501321
  0.1832708054330134  0.4969319894095558  0.3402270469184883
  0.9845407366383783  0.4590551758937957  0.1485227402536628
  0.1667029914897636  0.3383291611879505  0.1871826832964820
  0.1595028941241017  0.4955444329548864  0.9794757870875103
  0.9949666311293492  0.1820445680245782  0.8297350453248998
  0.1501337504358136  0.9792082943611025  0.8450245223281296
  0.1539715749918635  0.1493001101688613  0.6606459088919339
  0.0014235490532272  0.1744260033404856  0.5122566386749634
  0.2003900205382124  0.9949152480553889  0.5092070751716820
  0.1886657899472988  0.1746453532915083  0.3366919418938678
  0.9913263962490670  0.1804915476995085  0.1830807015619650
  0.1783214438258720  0.0047927271833931  0.1701794386480391
