Cl O  Li
 1.0000000000000000
    11.7780000000000005    0.0000000000000000    0.0000000000000000
     0.0000000000000000   11.7780000000000005    0.0000000000000000
     0.0000000000000000    0.0000000000000000   11.7780000000000005
 Cl  O   Li 
  27  27  80
Direct
  0.6581149642132795  0.6532179517098918  0.6656146079111498
  0.6803716158974685  0.6778894771258264  0.3411148975871727
  0.6641716220248219  0.6553135574988977  0.9790180798536556
  0.6661847995192020  0.3118476066977109  0.6549039498006397
  0.6749328059269296  0.3161957599673318  0.3376158245773935
  0.6633315497686907  0.3224949253843791  0.9930518430374201
  0.6898976709133084  0.0202126920498036  0.6612355035456342
  0.6380015696455889  0.9893630994037800  0.3234860521417240
  0.6704547552195352  0.0227597101595739  0.9991563326211921
  0.3320570311890563  0.6749789000348485  0.6564886297162781
  0.3329591878213215  0.7002725647452392  0.3341247879214861
  0.3267103052834123  0.6507081801772610  0.9896404051255348
  0.3219863259533737  0.3322055938695182  0.6472476729571937
  0.3259419529309792  0.3258484735881504  0.3098522462204516
  0.3020337191912360  0.3290578330044416  0.9758836007333755
  0.3267665192751057  0.0175767743056634  0.6773089400268270
  0.3311478908235774  0.0002006051829698  0.3267978801305583
  0.3492227842729744  0.0178311175677287  0.0270245200585809
  0.9966151121457125  0.6874962600490747  0.6993434077812978
  0.9818733730074172  0.6849650312491786  0.3604870852697911
  0.0037709946993424  0.6599137526880628  0.0013568152320473
  0.0037125309207672  0.3440962194952608  0.6686540905473578
  0.9900145537269959  0.3480943966387068  0.3085402152980142
  0.9991226441709604  0.3430162306998603  0.9806259098327618
  0.0122819087414359  0.9830163965244558  0.6581092606759376
  0.0192580003339328  0.9759425111590941  0.3419183305473138
  0.9906441581514934  0.9945532713921317  0.9831273312495938
  0.8328471190244915  0.8234044856645296  0.8433145456975766
  0.8349849106106485  0.8129750392114216  0.5131741651491295
  0.8363032774997408  0.8225225514945265  0.1469403129071068
  0.8339039501654096  0.4948485421192613  0.8183241976784115
  0.8360440089345230  0.4950474469382672  0.4877479916920245
  0.8309188799201530  0.4959655345793414  0.1593182614122253
  0.8311972575988597  0.1757130473980197  0.8241858372703014
  0.8548671334876159  0.1441820587342558  0.5041291982595357
  0.8354608570898331  0.1757489174712213  0.1820028438794170
  0.4959137725140318  0.8480252018909969  0.8614077992803786
  0.5051499115093341  0.8351117326259760  0.5251723807517716
  0.4911487612210251  0.8249664937506049  0.1650740518998428
  0.5093631876357596  0.4892637822459101  0.8238012258759282
  0.4934758220986237  0.4953021406521622  0.4853428749440730
  0.4943625740324090  0.4924515224532966  0.1692885527099190
  0.4939262627695499  0.1697681495606004  0.8211630346229862
  0.5048708860640686  0.1853842021230633  0.4991300598408804
  0.5037587518531805  0.1690252018029008  0.1657961496714264
  0.1691604823314864  0.8462823049933367  0.8567281717169226
  0.1893067105666337  0.8177586333075881  0.5121102085760629
  0.1665596692332662  0.8144957521793641  0.1764683871279089
  0.1684327773306270  0.5156476785604148  0.8275564905597700
  0.1688946450085070  0.5109330716027759  0.5079336527164474
  0.1649332589813385  0.5098997624850296  0.1716040246389241
  0.1504240269197098  0.1625295100846812  0.8618976727405805
  0.1795602529791128  0.1607469476066379  0.5018920554774006
  0.1726505068521453  0.1729313960949767  0.1867676325026691
  0.6472287613652957  0.8204544757842760  0.8443543729663223
  0.8423641053085061  0.6817424735892489  0.8560246972339087
  0.8189496113856136  0.8700717747830381  0.6624184467384969
  0.6680715005929481  0.7954873663904131  0.5150390850723312
  0.8536264985855974  0.6604192130310894  0.4983106756292255
  0.7855872044753687  0.8359472705161948  0.3407001245623985
  0.6792064862849768  0.7968388503448310  0.1284179443430614
  0.8488129452860795  0.6502750267763765  0.1511831231400793
  0.8585895240185915  0.8583375645385758  0.9988353195358795
  0.6463930615334371  0.5101676139571532  0.7826460253199391
  0.8251728666590346  0.3421185477053927  0.8490749717646315
  0.8185604656253278  0.5045012759827848  0.6644451058743851
  0.6743073468288586  0.4816185579193759  0.5186815978895066
  0.8587985906754907  0.3370984176016867  0.5032970611437515
  0.8454832632314645  0.4960223356094789  0.3310488279309276
  0.6766473630376361  0.5089508654469954  0.1590882334343326
  0.8668417460962667  0.3265155921730435  0.1557235416214769
  0.8249791844579103  0.5101875732642505  0.9712359515830914
  0.6645911318425585  0.1741522336315377  0.8143020531722843
  0.8026963387134939  0.0121403605653249  0.8228689278559671
  0.8462019602286136  0.1684189327891385  0.6661041574880721
  0.6737559355455570  0.1612167504248650  0.4866472743667377
  0.8498318820832996  0.9966695193632353  0.4990528136787264
  0.8383675475814575  0.1708741097464735  0.3447474509935045
  0.6686024262588232  0.1544918100728939  0.1712244536780874
  0.8300686863115382  0.9939410174961290  0.1500530943780004
  0.8607216476473576  0.2077206100648223  0.0107004346089794
  0.3463363769717270  0.8438896982370546  0.8728178833329090
  0.3512878235774800  0.5263390656157961  0.7916606686374922
  0.4805500857543927  0.8207441893777638  0.6817937922830902
  0.3555862810064068  0.8239652085921161  0.4941139985208727
  0.4875856807781402  0.6383228835702393  0.5538867792037194
  0.4966604044440354  0.8201307544464432  0.3369242730476052
  0.3356206581849753  0.8264911742887209  0.1779759423376228
  0.4733775690742484  0.6644935432306215  0.1678315536558602
  0.5172345229767755  0.8722899703933243  0.0261067613614624
  0.1402772091133513  0.3525916779158197  0.8274227267653478
  0.5082818628218314  0.3368287645288210  0.7706706030030898
  0.4944069865271067  0.6614232916828636  0.8688637543154710
  0.3373750326963521  0.4801604353951915  0.5245732776555677
  0.5324225435427109  0.3403321694774633  0.5123932420769117
  0.4717021613549479  0.5006348383632641  0.3418731893152372
  0.3392396489789792  0.5030569184979781  0.1478576616894497
  0.4966641695871592  0.3473733110023716  0.1786174134153226
  0.4798241013834555  0.4775050378430278  0.9769620839775941
  0.3302013014539097  0.1920955697413540  0.8385191298617094
  0.4601817545603473  0.0035647362887125  0.8225309556538377
  0.5234826362918958  0.1569560557620541  0.6729474468146328
  0.3531640794154631  0.1642155654667942  0.5350157604106746
  0.5227553159024309  0.0090354566695861  0.4923914252989992
  0.5009698334190544  0.1848859886684150  0.3415160270287992
  0.3372598112196797  0.1904321861888039  0.1758825227607534
  0.4864435873639009  0.0051377020040201  0.1917838962497265
  0.4677075874129861  0.1756870962502520  0.9960224182407513
  0.9947278044234019  0.8193042852880498  0.8195379502682338
  0.1897687300648009  0.6836687693939105  0.8448457039012820
  0.1747159105253403  0.8490214668586538  0.6589601830219313
  0.0119889208904195  0.8328292461847145  0.4890449417992614
  0.1841422297338078  0.6736717476043081  0.5003425978684050
  0.1703968662654620  0.8469660225963026  0.3190382035501406
  0.0020378905265020  0.8141097642810530  0.1505751436177473
  0.1614033968173044  0.6632002772956885  0.1980820697742303
  0.1554796424852231  0.8291304991331406  0.0012130827752327
  0.0062136740004060  0.5038075989689750  0.7984346874276558
  0.1613841763689383  0.1831934758634174  0.6712533753213530
  0.1687250415049408  0.5450934054574110  0.6632167785369862
  0.9931782848211224  0.4890262543458271  0.5342804643954525
  0.1545638726338675  0.3223123766709864  0.5207983775479079
  0.1241093302921348  0.5290551103120410  0.3157547760763750
  0.0071704827731595  0.4963331421015426  0.1489530653046826
  0.2050530046928544  0.3490079094284584  0.1951069791825224
  0.1682532852656844  0.5316107922995372  0.9886231079874171
  0.0005221835162395  0.1522257809507708  0.8319157975598277
  0.1684007938567791  0.1751495917052627  0.0122063967279336
  0.1700039553620522  0.9859475262868206  0.8699084398334092
  0.0307940661259945  0.1212833590552755  0.4792589299662350
  0.2073248839567130  0.9960008895338994  0.5016665112586581
  0.2093715631278135  0.1797934099236319  0.3522609357961133
  0.9955045679360411  0.2026851562334561  0.1746956322404221
  0.1922008303384735  0.0125944449231451  0.1744154529609736
