Cl O  Li
 1.0000000000000000
    11.7780000000000005    0.0000000000000000    0.0000000000000000
     0.0000000000000000   11.7780000000000005    0.0000000000000000
     0.0000000000000000    0.0000000000000000   11.7780000000000005
 Cl  O   Li 
  27  27  80
Direct
  0.6584205003244011  0.6879003515428707  0.6881594531065045
  0.6553345809229988  0.6481238816221854  0.3262179854819184
  0.6634973707301297  0.6836099507105207  0.9852153960167187
  0.6474756341174227  0.3306439365266716  0.6616813067576732
  0.6601353003475673  0.3056953492078535  0.2981988429747680
  0.6717460300917307  0.3278174071467167  0.9874206413565021
  0.6713052654337789  0.0110241426801085  0.6457800142395200
  0.6872395535610284  0.9863348694725943  0.3077392095830195
  0.6605111264079850  0.0061617690368867  0.0001839332749050
  0.3254767682931863  0.6694004220172812  0.6719881229040910
  0.3200456910359448  0.6805111974341691  0.3155154851815102
  0.3497108286120785  0.6993832283624625  0.0003983165280252
  0.3403690631822583  0.3184737996307445  0.6758279211238752
  0.3457161332138868  0.3402829863216374  0.3577825972786325
  0.3174228235106629  0.3215894353230385  0.0164444748572519
  0.3313291164834964  0.0237920643660786  0.6609225292046895
  0.3332384084159858  0.0039517362973786  0.3529729710638786
  0.3209374631605618  0.0220036365642711  0.9940645362436307
  0.9909892674856563  0.6638472002782686  0.6619766073377321
  0.9799233568614049  0.6283095932630874  0.3345567046379178
  0.0337691038939655  0.6664354325353519  0.9807711506266193
  0.9800924403804874  0.3167309837039040  0.6658534497076060
  0.9838780425532294  0.3308206553410338  0.3242897463775800
  0.0054809288793735  0.3250394400159777  0.0032972352442574
  0.9950149177752499  0.0098853374402573  0.6690137003216472
  0.0057209713029641  0.9839026616595516  0.3407894942253781
  0.0052360481330035  0.0007269399207964  0.9561613439529604
  0.8264678257035341  0.8390611314676956  0.8340939714629442
  0.8489920454619770  0.8225876181655346  0.4811360138756722
  0.8598021357392851  0.8278610047510833  0.1467411329321341
  0.8202968775797479  0.4937185604598364  0.8397757748639074
  0.8201699963050146  0.4904609424349038  0.4934987601093604
  0.8289718483079545  0.5054264147024317  0.1558884266953361
  0.8307268908285951  0.1640922838894367  0.8278169515651310
  0.8249969097898107  0.1823662643421843  0.4877879286694746
  0.8447580003202554  0.1573379207657961  0.1565252520722460
  0.5241701117603352  0.8471620190830376  0.8541971637073316
  0.5004973209220634  0.8288019666487700  0.5250869344146561
  0.4957202854623063  0.8204659397725313  0.1801477195459697
  0.4883921833517855  0.5012764172717329  0.8538520660730540
  0.4948905369857081  0.4967854112331598  0.5150787791373218
  0.4989230457567783  0.5049505087086570  0.1753093891755725
  0.5141931302486500  0.1718967575759465  0.8566773808907109
  0.5172283619168148  0.1671694584422933  0.5146923458995013
  0.4776171534394804  0.1556609644795658  0.1715755007881758
  0.1865529869187944  0.8559561788580897  0.8296610619876263
  0.1794216236578479  0.8286996195324570  0.5050418792189342
  0.1652348882504013  0.8387065602474932  0.1501726054286759
  0.1660535740887350  0.5200173969280697  0.8340323526690245
  0.1651273994870265  0.4977453203026960  0.5230716516789596
  0.1623935310890580  0.4847841997101826  0.1837621759740610
  0.1816793330282296  0.1777339642229414  0.8357754115083249
  0.1715337297841691  0.1701281929283879  0.4962268289723558
  0.1651715387052071  0.1567485746533863  0.1891513710747257
  0.6761025031130931  0.8556375586819088  0.8524860073710594
  0.8034331658966427  0.6494347991958496  0.8389294678546461
  0.8566361766824432  0.8250282406179983  0.6726929738910428
  0.6683602757443569  0.8233375698991530  0.5175804131025561
  0.8599969515318877  0.6563525411912792  0.5147133983126669
  0.8643275948617120  0.8330372263527899  0.3288070072044953
  0.6932664545962690  0.8220008226339508  0.1651523285605006
  0.8192853091271362  0.6655753604867131  0.1722271337037691
  0.8099983609423667  0.8266984257194172  0.9897882180080924
  0.6488063895419547  0.4946994004863084  0.8318850065261231
  0.8095046818536310  0.3459809029157543  0.8276721757392067
  0.8542095621818165  0.4947435295831366  0.6682840317784060
  0.6742986756734819  0.5134546310069419  0.4992100368887554
  0.8459061665459846  0.3401633924206924  0.4877280507481823
  0.8102712326053220  0.4904355175974653  0.3171038087840424
  0.6698583573681461  0.4770934697828825  0.1760576405219734
  0.8484999048188190  0.3234388290915304  0.1444604177275574
  0.8240791865174258  0.5202135082537902  0.9916828643435381
  0.6678047349492420  0.1611873342704396  0.8815553414118990
  0.8076638102639302  0.9841221406578184  0.8111899985593201
  0.8237105263745663  0.1696239167836019  0.6590804025672806
  0.6651692157333560  0.1502036931620969  0.4940812237020815
  0.8434354229485300  0.0107722943314304  0.4982626782962989
  0.8107028070752188  0.1610897340684411  0.3399223574727059
  0.6739182747617417  0.1530235019640028  0.1444805997044095
  0.8457039824087742  0.9861663818481394  0.1773799749812390
  0.8789926249021195  0.1713629169605563  0.9946769919340983
  0.3483084949827833  0.8421532451368180  0.8529475410443075
  0.5027004964452639  0.6860730830509075  0.8521224483898517
  0.5298537774901552  0.8706613704251517  0.6784481773402162
  0.3442980507601272  0.8211799404621281  0.5017657188762517
  0.4980927304844410  0.6609107530103427  0.5262839665301760
  0.5131535863777736  0.8157239646777771  0.3594110824078194
  0.3263478118879171  0.8502948610745533  0.1591825726813817
  0.5190756302012852  0.6619779484162041  0.1670844137787828
  0.4982051989532378  0.8493713888739580  0.0049112854270491
  0.3310397267732880  0.5194889408722008  0.8248326910280729
  0.5104857193193501  0.3307596843136730  0.8446260079448251
  0.5081737999850667  0.4560849023161401  0.6752069559063069
  0.3366055597174950  0.5141628422829181  0.4863863642629682
  0.5127005141552018  0.3294480582453350  0.5058850688516304
  0.5306545384132405  0.4653181263619272  0.3467978124574592
  0.3415006303899148  0.5068808530543121  0.1910648734898482
  0.5023131725284251  0.3159479149049598  0.1720702932256847
  0.4818559758595743  0.5007762605174078  0.0322510302509904
  0.3508953507359286  0.1708999258125506  0.8182296016386508
  0.5010989745990931  0.0281280087542662  0.8845710186270659
  0.5139148335407634  0.1442427833450485  0.6782386653438075
  0.3363212914116431  0.1897568556829384  0.5235306347713818
  0.5121706411099850  0.0160926971296029  0.4996095064285746
  0.4937790505413790  0.1684603458593927  0.3324900661597198
  0.3112982109385464  0.1726688143433886  0.1901373325055544
  0.5111569269306466  0.9941632017172458  0.2227563058331808
  0.4650029928101017  0.1619446037419033  0.0074518271363991
  0.0374507332081517  0.8569676663398820  0.8228102828602278
  0.1582955675314770  0.6907894713665836  0.8531201708322662
  0.2003339370624721  0.8720088868093963  0.6559872767629100
  0.0331201733794853  0.8268274932062869  0.5194604745690730
  0.1487309400413225  0.6632426721371335  0.5210992834777929
  0.1435103767943855  0.8231909317443719  0.3201201337657682
  0.0215599593055670  0.8133639891619020  0.1121541233422041
  0.1794194374457115  0.6643083290974173  0.1584943105911505
  0.1841459875992809  0.8449359693032241  0.9892541964735265
  0.0024690274031215  0.4697955697881724  0.8366783980914936
  0.1761225080877329  0.3495985576912303  0.8775444518497337
  0.1958638012527199  0.5387127090420007  0.6800808324666262
  0.0027056435907503  0.4949509363382286  0.4997548085648280
  0.1486910517911849  0.3427668067065007  0.5053736976387535
  0.1548190448950311  0.4946288344167933  0.3344984056476128
  0.0070072041630901  0.4981952751487029  0.1555400396215012
  0.1367495157624504  0.3180313953136903  0.1730363965629407
  0.1903876030061069  0.5020304175463445  0.0134395920645088
  0.0074241874382130  0.1995205600550911  0.8551664653919725
  0.1518415454214321  0.0315096335898268  0.8567038583488076
  0.1641667211947016  0.1825469507267199  0.6609536219995188
  0.0148425441791674  0.1580855951951055  0.4783649090219169
  0.1997850156318814  0.9958578811242593  0.4998624187844325
  0.1427573886550222  0.1724495048777759  0.3457342607384920
  0.9980059074302480  0.1473991169956786  0.1808787443504437
  0.1839167794509393  0.0035503791253212  0.1508882761414325
