Cl O  Li
 1.0000000000000000
    11.7780000000000005    0.0000000000000000    0.0000000000000000
     0.0000000000000000   11.7780000000000005    0.0000000000000000
     0.0000000000000000    0.0000000000000000   11.7780000000000005
 Cl  O   Li 
  27  27  80
Direct
  0.6836235337734864  0.6637213946900998  0.6737044361272940
  0.6725257541731873  0.6465565930133153  0.3197026027302827
  0.6565627618902945  0.6587657376017139  0.0055072326168723
  0.6667514416105250  0.3159015012056718  0.6668308232286927
  0.6621593030179366  0.3382093062053123  0.3507826041700863
  0.6612416202309617  0.3496645314899192  0.9837406947750068
  0.6633761324989141  0.9970903844450053  0.6518714642580649
  0.6689142531800213  0.0011513841907319  0.3401576536724069
  0.6764755917371722  0.0070485389759020  0.0080681131840378
  0.3515034571646748  0.6700244062210908  0.6783347524614504
  0.3134177794190650  0.6591099445569730  0.3722984943087122
  0.3594256421805678  0.6519633790245964  0.0208532032141581
  0.3173111600788967  0.3208982307424360  0.6780745122463943
  0.3261212711054631  0.3475002219602554  0.3090580977796050
  0.3240140662465112  0.3394263381133395  0.9851120254364760
  0.3458327872514436  0.0092995100558678  0.6652775599911634
  0.3368769489918197  0.9825970745360023  0.3439350233900726
  0.3395442290117991  0.0128668844825439  0.0026880336264535
  0.9951657917892611  0.6735142890428152  0.6579594982623062
  0.9980288543491513  0.6683534923822931  0.3193670394100444
  0.0111087839633539  0.6702577236385409  0.9965233012782614
  0.0017149372165763  0.3294093772593443  0.6600559947303304
  0.9901240807480143  0.3461774016760705  0.3300949038197763
  0.0164730969841071  0.3172712440799701  0.9943186948488535
  0.0168749070866881  0.0063063522173923  0.6530740833601556
  0.9963083833638179  0.0136579339679213  0.3349348333638659
  0.9673977432737364  0.0037742827126556  0.9861924570410476
  0.8255085394866838  0.8455773622333056  0.8215659790257743
  0.8361769308292227  0.8165676227158890  0.5017794586700886
  0.8335737189704640  0.8334038852910589  0.1699904110156025
  0.8418952520699463  0.5028982453741869  0.8346765312663544
  0.8265358972491700  0.5009093591257673  0.5249875579731373
  0.8382405531443806  0.4941548138177820  0.1549914977994691
  0.8180214916567619  0.1687002955859206  0.8132559437827133
  0.8280484321643059  0.1745838985126999  0.5080100418027075
  0.8128787110036606  0.1796346558290211  0.1629736923142368
  0.5126764409078277  0.8304067503936421  0.8342400175764456
  0.5071119642248535  0.8194674306878247  0.5069901738410590
  0.5097031519168620  0.8375116159537866  0.1709609272625413
  0.5004060823796089  0.4979850979662316  0.8228135774183019
  0.4958090855378284  0.5066875582877834  0.5142866163610116
  0.4964012251435237  0.4871379635388340  0.1644601647467275
  0.5108594961953981  0.1742847518186973  0.8357880986815033
  0.4909781235120392  0.1827649472397112  0.4872098932263056
  0.4944509619761812  0.1619963671617053  0.1672883540284898
  0.1893232976358878  0.8473299756293502  0.8269719958142667
  0.1752586662248022  0.8290296796601455  0.5167174818296812
  0.1691315536786221  0.8285198873782562  0.1811208218563086
  0.1563570607045521  0.4746451376830276  0.8431454312579966
  0.1711931213592259  0.4939382978454547  0.5120112148664887
  0.1673353881028410  0.5025590181243497  0.1569326213855191
  0.1704957399304071  0.1575513019420548  0.8337979978707858
  0.1590211018917368  0.1754575534163715  0.4876194436331984
  0.1437336997657659  0.1757790682993627  0.1568959213614139
  0.6576020628487113  0.8539133891095445  0.8482237591384828
  0.8436940998041356  0.6694664363013800  0.8118655128639386
  0.8228705101753817  0.8043773848139296  0.6574735114014579
  0.6609508540168154  0.8065950136284766  0.4968809264951194
  0.8169288714134622  0.6515667434634727  0.5134382445958439
  0.8462924534137023  0.7695817134211997  0.3474665252132090
  0.6701366696475696  0.8583403877150118  0.1569484613021558
  0.8175758282642079  0.6775150572524969  0.1333926328131835
  0.8686020195286750  0.8378636770785729  0.0155330964655457
  0.6661738767524059  0.4995666605053048  0.7994824834398735
  0.8259619760779452  0.3361225464783771  0.8055165099072625
  0.8201856797301961  0.4856884644069656  0.6839355850425454
  0.6833297716390050  0.4730666115496995  0.5166003980241519
  0.8405992331271378  0.3360527293889458  0.5248470736006662
  0.8103226241620650  0.4865674431420436  0.3132278520903515
  0.6837041807100750  0.5078733354593415  0.1514532753982837
  0.7877544372484339  0.3166348336785120  0.1835091169164325
  0.8462846802149949  0.4723462141653332  0.9894828378839695
  0.6746435054814269  0.1698799189751687  0.8433567650978524
  0.8381416068025018  0.0098517436990587  0.7904196624844987
  0.8326247409616099  0.1665429495467654  0.6616320917390627
  0.6463575641228111  0.1839592061046504  0.5009185769132510
  0.7999573875691125  0.0140548390100550  0.4756441022871690
  0.8268343556912039  0.2182486479315652  0.3494229826482715
  0.6486250709623969  0.1521957400956928  0.1300984463417280
  0.8387009532261503  0.9766488113488820  0.2178669790861358
  0.8168977786186327  0.1767682280775761  0.0005082915645904
  0.3343539589728451  0.8405677785788873  0.8568744386207289
  0.5202622731379887  0.5192183189726979  0.6675882242777388
  0.5397434880295594  0.8341676830348745  0.6698833016814896
  0.3471140290196261  0.8321042226613565  0.5489225323261420
  0.4772208168477629  0.8152984860852767  0.3425498555745893
  0.3388717865954997  0.8237102206780921  0.1666561541096648
  0.5063842389812893  0.8335167586139550  0.0283043379551304
  0.5248389867893923  0.6445658849214486  0.1518915400821721
  0.4817538872272576  0.6600605419822242  0.8373574449910415
  0.3292366233998875  0.4900418605371730  0.8351496437668436
  0.5060524610468797  0.3562015082049190  0.8381922842650263
  0.4992337058787389  0.3373861568505334  0.4990368960303369
  0.4751882873274343  0.6678898534677286  0.5068634140225556
  0.5208376112985613  0.1776277940585907  0.3314068537713938
  0.4957276693784511  0.4745963527640571  0.3297573364717463
  0.3216749407167521  0.5052216625648916  0.1659399064798167
  0.4943379267116453  0.3358262540057749  0.1399441336689971
  0.4770047867003550  0.5103648885575022  0.0008638553099207
  0.3452864366443837  0.1601251618786114  0.8324588214809876
  0.5073725688085990  0.9873537635469294  0.8613837845500023
  0.3263671997281074  0.1371342769212112  0.4809438043891746
  0.1505326575684489  0.1930267638529873  0.3204666029011479
  0.4846549097614912  0.1654742865447940  0.6836914580206429
  0.4948577998606083  0.9859803301744816  0.5068696487756854
  0.1543369602050734  0.1553502923882858  0.0005098148281392
  0.4904188580592103  0.0020330640617538  0.1940188459374398
  0.4689934528117871  0.1706602347662374  0.9858241878354280
  0.9861279791144119  0.8499156168201978  0.8288708425109931
  0.1494390859180156  0.5320710196374080  0.6991252250248778
  0.1586782511977104  0.8282113075837390  0.6745265328614147
  0.9916663376473024  0.8351286447250689  0.5213541543731970
  0.1755657480591519  0.6723925597897726  0.5022017619811104
  0.1629440369008205  0.8572163507936030  0.3463874270968271
  0.0237014987119891  0.8464643165941406  0.1777978603797424
  0.1614298117198200  0.6721731693533401  0.1901180362048851
  0.1945322112061163  0.7496079935177813  0.9333017178130829
  0.9956208632952407  0.4913483652011544  0.8556481355538270
  0.1801333727360252  0.3197735258117634  0.8376013592216293
  0.3208774388691664  0.5051204085546467  0.5292330604858704
  0.9941442648746822  0.5159785954989561  0.5024811517950653
  0.1482795230493898  0.3224020410517309  0.5240212117234218
  0.1496052380403849  0.4787082939094178  0.3345445135266918
  0.9936675036266227  0.4965815092892283  0.1421039088327484
  0.1598957689306568  0.3319806258869602  0.1660752492052262
  0.1659846632498591  0.5166487504895944  0.0052941237448248
  0.0239665060840649  0.1878706027719028  0.8492648009695267
  0.1741340625076544  0.9932352403571025  0.8303884785877806
  0.1617011550585504  0.1593559188471597  0.6524442113524017
  0.9944780715076801  0.1570815294878852  0.5078354282296621
  0.1649937828417235  0.9840817706711320  0.5136630195917975
  0.3367012018272960  0.1760488225857532  0.2162752344664642
  0.9771227663670353  0.1816066191760883  0.1586347191113185
  0.1650238230158945  0.9954835046078635  0.1538452343880067
