Cl O  Li
 1.0000000000000000
    11.7780000000000005    0.0000000000000000    0.0000000000000000
     0.0000000000000000   11.7780000000000005    0.0000000000000000
     0.0000000000000000    0.0000000000000000   11.7780000000000005
 Cl  O   Li 
  27  27  80
Direct
  0.6511994446190933  0.6429701508752221  0.6746968005274866
  0.6607007630494636  0.6848559106534708  0.3499930842228520
  0.6489932731755576  0.6773701178712568  0.9889703912261403
  0.6770957346563523  0.3476771415879909  0.6815765672083979
  0.6905277815372185  0.3314266421664516  0.3674714858849857
  0.6738054449056030  0.3330737303415031  0.9990031099980023
  0.6701927698355489  0.0152543125533543  0.6615445888000846
  0.6610746053247943  0.0054589663030000  0.3361166492398449
  0.6728345642899748  0.9974470836473525  0.9946383916326538
  0.3556810125693493  0.6583417322897983  0.6649807474828263
  0.3204455481685058  0.6479570627000772  0.3158670819958409
  0.3268516760385988  0.6781988542126067  0.9739047871533240
  0.3237990356441621  0.3274421086061533  0.6925954002593259
  0.3159578214481372  0.3397792478180583  0.3266464033615990
  0.3304378736505560  0.3383014088992360  0.0221558629781138
  0.3310985550552696  0.0148701667411951  0.6849250344932226
  0.3605226222579512  0.9991675720287605  0.3135788061409591
  0.3429417520232744  0.9821868886657340  0.9881958433408181
  0.0240627956324180  0.6513224933716644  0.6701395198728514
  0.9674833472042050  0.6505132709979027  0.3142502566647151
  0.9560005285823899  0.6633061747121403  0.0134519692200166
  0.0108287325274818  0.3176002471501229  0.6327595028223919
  0.9988794233000401  0.3080911960064553  0.3067941599306877
  0.0213490737865680  0.3253498833488769  0.9959371053855610
  0.9764966747459354  0.9888746241911447  0.6717658187899018
  0.0139183500180478  0.9966648738982002  0.3330048799041996
  0.0218532132930954  0.0026600251995769  0.9869447303086408
  0.8214005128358975  0.8289386263595276  0.8376159200010946
  0.8313820287134954  0.8232781182841901  0.5262540490839933
  0.8195519490183093  0.8368700420488856  0.1569236601418130
  0.8414693734526607  0.5002852749179578  0.8409266548838608
  0.8380015551793507  0.5310674656822867  0.5091488419306315
  0.8254531023702948  0.4891773739651752  0.1714396127814907
  0.8320800781515781  0.1828469488238563  0.8246294960273725
  0.8414549606467242  0.1847636091009536  0.5038381682825337
  0.8274169686353754  0.1609819023886069  0.1491045408582596
  0.4862851231731158  0.8521751464203503  0.8185429194978890
  0.4898999439698964  0.8275438230164801  0.4952388647854939
  0.5013789341901346  0.8365357945044704  0.1633494740424864
  0.5031030863429955  0.5106040342603063  0.8601088040522489
  0.5049790992685190  0.5061309632583340  0.4988320663733699
  0.5037053068157644  0.4966370536579816  0.1731472064016887
  0.4949663286544521  0.1713732014642046  0.8430045280633154
  0.4904320841980695  0.1962806151211199  0.5085211966204241
  0.5118462345015310  0.1617099009086883  0.1746776561107202
  0.1592002169978007  0.8335871611281543  0.8181311019080398
  0.1717433257327451  0.8121757233471584  0.5075931495685060
  0.1507516710460027  0.8407266821992024  0.1741390382169578
  0.1776469891801467  0.4978248551000365  0.8356225803575824
  0.1827197098313571  0.5130922675548525  0.4994987801041635
  0.1523872512432805  0.5093644519789459  0.1598881233134132
  0.1693583099908259  0.1766912839423203  0.8170757282418792
  0.1817952052528083  0.1464360411523404  0.4982732057746403
  0.1845582332672818  0.1467397525763131  0.1725656537306912
  0.6472404168670534  0.8442259171506212  0.7940037408870287
  0.8166962701432017  0.6589264225800658  0.8423748989680212
  0.8387335313909582  0.8066002346326819  0.6784933198440511
  0.6518631219441421  0.8375137600668369  0.5268908036114358
  0.7930612926778083  0.6705094603038344  0.5169612710001932
  0.8172671953940917  0.8356355609291770  0.3282302533263335
  0.6612837934379235  0.8428267413833008  0.1666038127492143
  0.8616366945863836  0.6666160189158876  0.1675708776149563
  0.7911575067610702  0.8084951137592348  0.9896577025418225
  0.6361684669582922  0.5108148417898329  0.8582940860373655
  0.8178349627830065  0.3296856480830580  0.8165929802138258
  0.8331931030414846  0.5148096991296643  0.6732657627425480
  0.6742588410114543  0.5135670399571489  0.5250866522885451
  0.8194079829005837  0.3484004539218725  0.5423951366851857
  0.8641378832121086  0.4623897571428082  0.3522875138600438
  0.6680059909033716  0.5010966430184459  0.1617967674793436
  0.8203336413133155  0.3253070700278717  0.1786762988363805
  0.8289100705537427  0.5166213402533927  0.9881103938224760
  0.6611290582011556  0.1857013726512558  0.8450869356086829
  0.8342331732226901  0.0081837564803752  0.8320768681555590
  0.8582105762853055  0.1687146258073610  0.6646427347952870
  0.6773492947787694  0.1620390574128045  0.4624909859126377
  0.8155076994783581  0.0053030569893440  0.5391843197941368
  0.8562196657663892  0.1497412700193554  0.3485877141878117
  0.6765663474360548  0.1542998360857560  0.1342491382989899
  0.7918468923214269  0.9962301368219445  0.1498442497831644
  0.8540935339782931  0.2040251501582222  0.9879780217140205
  0.3135034744417060  0.8612045264271194  0.8268320642694240
  0.5128664263464590  0.6909476693154259  0.8418370907824576
  0.4513286437321277  0.8508655243798040  0.6745374094685762
  0.3251003581756720  0.7998613571783411  0.5159000269495924
  0.5088816903591109  0.6745514021754191  0.5047112766331712
  0.5224251126027056  0.8325704915138907  0.3259874021013976
  0.3187872252921975  0.8275826890100170  0.1983557100522833
  0.5118829952537510  0.6831715556585750  0.1861613021531008
  0.4898477177910815  0.8282932889251791  0.9762666249980558
  0.3331897884200025  0.4895112976263111  0.8358915654211840
  0.5025960875543916  0.3392838683421053  0.8693357528594959
  0.5038808920386483  0.5025167497427023  0.6974785884639301
  0.3300589504562783  0.4790980453371766  0.4790135270462286
  0.4846110919577532  0.3403113880462313  0.5094903768488350
  0.5275156265915820  0.5196913893741010  0.3435781710188033
  0.3562637595599399  0.4864704789715752  0.1885503461933085
  0.5002745326925438  0.3337780145327156  0.1906271869948098
  0.4884621856069089  0.5218644032669006  0.0081103950827867
  0.3228096531961941  0.1473811224404881  0.8315241613391395
  0.5160976478841145  0.0037387969023412  0.8353780484815808
  0.4805382597183888  0.1790466441214629  0.6742850234230474
  0.3330830081513015  0.1386017195973567  0.4748927600815023
  0.4884923067518998  0.0062039560435631  0.4708600893687925
  0.4716840600804043  0.1926313817258953  0.3389361948865861
  0.3380868023920992  0.1840730494637087  0.1468069837231503
  0.4897880422968387  0.9932838079510721  0.1731491699440705
  0.5024869388892095  0.1056692677406111  0.9942386488163176
  0.9928237984990355  0.8043160478042034  0.8535550258921263
  0.2023069357688401  0.6565167309807918  0.8278108395399894
  0.1201451464753776  0.8159797324645608  0.6684666627343768
  0.9888648763886123  0.7851813475362581  0.5135322782350098
  0.2061528270428193  0.6615176507574841  0.5005204294238490
  0.9853309960476423  0.8601708529406835  0.1562910452475362
  0.1794513834154969  0.9951286430725269  0.1412133271809661
  0.1538254650671299  0.6659211678251898  0.1912908238344487
  0.1808596279146426  0.8556821545704765  0.9722055107545292
  0.0189717894927771  0.4902797107068592  0.8450495270899037
  0.1991665230056665  0.3379389025386866  0.8498648617474586
  0.1627579230025168  0.4447192117251275  0.6644601051110746
  0.0223152505036295  0.5067092568538317  0.5258026772486387
  0.1733627826155166  0.1529212269066820  0.3325489332175224
  0.1435777272551582  0.5246246175453837  0.3244385720162560
  0.0025800658911586  0.4624438861358900  0.1727150651360527
  0.1775143994626127  0.3230684495282739  0.1662308206674920
  0.1770841812539487  0.5342277972671480  0.0100616792415610
  0.9878766983815898  0.1694797190842945  0.8402827749242697
  0.1410000920541252  0.0255730718957027  0.7861991255015842
  0.1620478898830937  0.1690625371776292  0.6494662525711828
  0.0186004332746499  0.2138502304118350  0.4796983782406729
  0.1423978305893930  0.8284565364622981  0.3434143670502102
  0.1160769498154507  0.9703705246683321  0.5100309785276842
  0.0089633723254471  0.1428025160961702  0.1512425854782287
  0.1656414760823639  0.1323624017375445  0.9754507781990939
