Cl O  Li
 1.0000000000000000
    11.7780000000000005    0.0000000000000000    0.0000000000000000
     0.0000000000000000   11.7780000000000005    0.0000000000000000
     0.0000000000000000    0.0000000000000000   11.7780000000000005
 Cl  O   Li 
  27  27  80
Direct
  0.6801661455129098  0.6747202849162717  0.6916229631123526
  0.6549512249248405  0.6835090601318029  0.3150392384904472
  0.6547543038909214  0.6894591198589889  0.9922489619750667
  0.6796719805992549  0.3238767183482147  0.6790043895732910
  0.6573122125759641  0.3448843951359385  0.3401505771572002
  0.6736932976872455  0.3355434798997270  0.9982776551222816
  0.6544290441075112  0.9909100216007994  0.6691596738958603
  0.6576705894247000  0.0076870312481927  0.3487874106292488
  0.7014863291799144  0.0180144652222041  0.9976206955286515
  0.3537679933463058  0.6659629668642594  0.6766000825335382
  0.3508902904081941  0.6745265217443274  0.3420685329674154
  0.3118567682452085  0.6364195081876823  0.0015574134476256
  0.3384043875574865  0.3456156426101672  0.6722156745793215
  0.3632991090383874  0.3273227554709803  0.3344240171355550
  0.3222487656941276  0.3243808224300084  0.9831510104378063
  0.3243037241315597  0.9887747458033191  0.6471112791603721
  0.3347454174211728  0.9648839144640025  0.3190316667056826
  0.2994138001717360  0.9907716835876393  0.9885682859657675
  0.0034567317946920  0.6637155407880009  0.6627182427483048
  0.0035596659494493  0.6545134500224531  0.3264440594396861
  0.9938583593990653  0.6485487345768710  0.0333100181383456
  0.0113947602064366  0.3380792835509455  0.6638309032695222
  0.9999068756895575  0.3589669210982149  0.3352787855954924
  0.9926610369272462  0.3374203632615640  0.9862947328832420
  0.9920798302799866  0.0057201330054590  0.6749798159425680
  0.9931685765756234  0.0080404612859025  0.3362384315098639
  0.0054061906308044  0.0268527907839872  0.0074266416816863
  0.8505046212110301  0.8342149459906091  0.8480287898357723
  0.8248244827774088  0.8218162891983093  0.4843789593681997
  0.8349918266866041  0.8319816898078274  0.1647189660399102
  0.8466296816554234  0.5014977095852703  0.8575662617372138
  0.8244787373765723  0.5180415460444865  0.4928460780018048
  0.8359080115134114  0.5004781250214912  0.1642340014356628
  0.8297390066893021  0.1674442117396485  0.8268103864893419
  0.8359647720581388  0.1716361520550389  0.4899265941206414
  0.8297101810774289  0.1906392342552885  0.1754992084487443
  0.4918051442431421  0.8397379656138109  0.8355499719318031
  0.4848395889785807  0.8403879993557116  0.4956898946518017
  0.5086307591554995  0.8356913679200837  0.1402598169631371
  0.4922547752058697  0.5028878571061753  0.8359632469964100
  0.4942975475349116  0.5147180582575912  0.5030409519897551
  0.5127705137774848  0.5043405141000186  0.1503870297097351
  0.4934522931463087  0.1669828298866876  0.8304047621541059
  0.4909579465548625  0.1601444392947289  0.5102975568663325
  0.4914559575824611  0.1303758817389186  0.1651065632332662
  0.1580776754037193  0.8159785359982803  0.8521250226420787
  0.1654009799931630  0.8306728774754799  0.5146290908751754
  0.1487648367992970  0.8222935312106118  0.1554843654901855
  0.1665215655333748  0.5029378161020340  0.8326839287917526
  0.1759990481786464  0.5118727031620169  0.4844753956146626
  0.1795434850902566  0.4839730735849918  0.1647456864104667
  0.1803220195232883  0.1575746785059281  0.8210518227511441
  0.1754166857994501  0.1495397011379589  0.4913715184011872
  0.1681804450840696  0.1630194499530799  0.1895629694235162
  0.6760088202230130  0.8337126030241475  0.8608491426579451
  0.8711562288183842  0.6609832614423723  0.8623334997277667
  0.8090308814496802  0.8302749058958283  0.6531066015758644
  0.6587239793057740  0.8215102194992078  0.4960815909929134
  0.8355362744793970  0.6723695805592714  0.4613204941402672
  0.8545470893929440  0.8337994037430460  0.3305443812723958
  0.6593849845937670  0.8184032071992300  0.1499492407294134
  0.8343185543194008  0.6556094305547775  0.1573961573967382
  0.8895583860789827  0.8422660365517320  0.9845581213454738
  0.6598611335000012  0.4989944966890484  0.8388958481503920
  0.8284040407821369  0.3536106203931216  0.8454835530840391
  0.8441667922274960  0.4711776192899284  0.6645397218266472
  0.6658658890160082  0.4790817073275809  0.4922143436651941
  0.8776476594472081  0.3255694943083768  0.5112698544713085
  0.8287966682876774  0.4876538046291450  0.3351320462271865
  0.6666627633397397  0.4504944735482359  0.1480892701475762
  0.7991944652812859  0.3470609312594024  0.1852039255786231
  0.8570260920140251  0.5060394843279006  0.0083561810005111
  0.6450488985090737  0.1503735588836654  0.8370676889794106
  0.8441493835012244  0.0019901337477541  0.8487436812043878
  0.8419907824143612  0.1598338858364774  0.6694646909743035
  0.6549508200707411  0.1756387218654628  0.5091271641505493
  0.8164005215907933  0.9997631986658909  0.5070705862967199
  0.8212186092562236  0.1700362901106754  0.3235482797660390
  0.6613870690858251  0.1617634002312288  0.1381139890231082
  0.8276451822583333  0.0173260905319265  0.1362391096890628
  0.8223367353077821  0.2050564935868996  0.0087038007493109
  0.3280949196167179  0.8001293077173023  0.8170969649963272
  0.5077961119442994  0.6648269462615101  0.8430024452216416
  0.5257857633630801  0.8469726273982038  0.6887474463863775
  0.3169979294819125  0.8354474838106408  0.5143391748546378
  0.5048143615026573  0.6701492392222590  0.4856470838635636
  0.4695006792898211  0.8474748084230258  0.3548570642573800
  0.3352405134992562  0.8081968353548583  0.1707275373058034
  0.5240544857780708  0.6616543475974390  0.1728967253273643
  0.5243866685665796  0.8311330346447900  0.9962439939082285
  0.3393779199674655  0.5010186457295207  0.8603932769420880
  0.4993134873986895  0.3421346260932185  0.8424168642523556
  0.4643789510498857  0.4797887040412590  0.6796915889215115
  0.3262835416481542  0.5052130556549170  0.4717388071056433
  0.4982215554073585  0.3407842757302785  0.5248926281183738
  0.5158886595651947  0.4953901211280309  0.3364251502204798
  0.3490636696827901  0.4888333470475733  0.1368361075439501
  0.3199666841069657  0.1176264694763028  0.1829683212420654
  0.5063750740556144  0.4906689150485727  0.9925110487043663
  0.3487673164820730  0.1785573353103127  0.7750816923916996
  0.4557649513490398  0.9933236086556108  0.8371250972906970
  0.4950164469591102  0.1169942088293629  0.6616993869219048
  0.3374843566167354  0.1545501552286908  0.5100882068115636
  0.5067057183985458  0.0151882154446115  0.4639498595738433
  0.5216624863029379  0.2107164753519082  0.2934100904175310
  0.2113517785693638  0.3228625588293670  0.1530332168311389
  0.5386335248077782  0.9926406609080179  0.1790664993742623
  0.4363597275719152  0.1501960101183996  0.9964442622631894
  0.0053117514537034  0.8357772779599637  0.8137612911010418
  0.1699674305931482  0.6644137116823133  0.8188745174048914
  0.1766973810145986  0.8372130525378645  0.6910733331870881
  0.9975681423622073  0.8228019469885635  0.5074294084849654
  0.1813808749347031  0.6683246022819417  0.5146128157403819
  0.1721523674391735  0.8477952909280635  0.3116470672055988
  0.9893623230483078  0.8142028459185732  0.1878403759589377
  0.1608602072644284  0.6383546298117094  0.1814260093079232
  0.1567056349824071  0.7892121740161288  0.9942876762743472
  0.0027738201044174  0.4897977095122021  0.8548755204221775
  0.1939040648479600  0.3286497659950933  0.8408406862728034
  0.1433595892335933  0.5156150125146799  0.6673328912288167
  0.0077640210525375  0.5197878842019914  0.4924837740683052
  0.1600015724478423  0.3315467197456285  0.5215723791642733
  0.1820355442560415  0.4746539799847346  0.3273866205110655
  0.9947831736277416  0.5033071240114523  0.1697719601751302
  0.1416863576050769  0.1521052818081840  0.0055047379114180
  0.1704244703858936  0.4743892863745859  0.9973280995637517
  0.9900345155937178  0.1710399639083502  0.8509824434029202
  0.1809780046204495  0.9929401428718214  0.8646673216688244
  0.1713692176694094  0.1711014612460400  0.6772079709636978
  0.0065287340201372  0.1167676727180769  0.4975498753549913
  0.1956042698808450  0.0035008907840677  0.5020795044746414
  0.1397794138263638  0.1735318408897904  0.3433293296035813
  0.0002094743973414  0.1779952763641984  0.1866165020166317
  0.1695264027800318  0.9934868958026426  0.1573509351938419
