Cl O  Li
 1.0000000000000000
    11.7780000000000005    0.0000000000000000    0.0000000000000000
     0.0000000000000000   11.7780000000000005    0.0000000000000000
     0.0000000000000000    0.0000000000000000   11.7780000000000005
 Cl  O   Li 
  27  27  80
Direct
  0.6578240176656841  0.6810113381776629  0.6631062001311924
  0.6551127907332214  0.6542445713414119  0.3333633255801826
  0.6549272865849036  0.6692517030957620  0.9926678521088974
  0.6789287379810197  0.3498183774563406  0.6472984693953967
  0.7007511836436663  0.3419768393770362  0.3434984228603654
  0.6650679101235423  0.3060104918706535  0.9751791899256833
  0.6758784862257694  0.0019972192772904  0.6746984685284260
  0.6529467403309304  0.0027387381846823  0.3405229071718531
  0.6672204383989153  0.9957562666609060  0.9920718328622783
  0.3170145980081393  0.6503541663592102  0.6682112888676450
  0.3301763440495808  0.6573090739609591  0.3508551076702996
  0.3515579643261604  0.6527643437834034  0.9815304069282151
  0.3563483194857859  0.3367677233797580  0.6617743111151823
  0.3177915535101835  0.3169045893735746  0.3143588466332902
  0.3210641106513817  0.3272099075598249  0.0172024115875177
  0.3668752143206051  0.9946797950354935  0.6628132477049096
  0.3491460865147499  0.9873001040750720  0.3329759611779338
  0.3460196007325936  0.0049995598709527  0.9690120449000929
  0.9805603684905296  0.6687122350083907  0.6609407570100503
  0.0177224095635661  0.6533924749185301  0.3586745407157800
  0.9971534404270482  0.6978272770770458  0.0053485530398406
  0.9855688818119228  0.3484569340910787  0.6676387442003578
  0.0019053931194513  0.3470680011324715  0.3302245524761114
  0.0132254496393945  0.3558226471474283  0.0143264963332885
  0.0085425617352699  0.9784694454377950  0.6725411224892707
  0.9819591305475673  0.9896945023107435  0.3410403511962201
  0.9882794837508697  0.0396421217691575  0.0217785242836175
  0.8291733330790377  0.8394785200332840  0.8375467385346494
  0.8292604576812156  0.8385601489943403  0.4856526160642141
  0.8091675487309516  0.8203357226833520  0.1512500125287312
  0.8301142140059048  0.4934032845618486  0.8509763967763295
  0.8228266782761379  0.5090891946991526  0.5022149138703605
  0.8348024244762665  0.5200157210154308  0.1606612509219981
  0.8415942568468012  0.1672652713967757  0.8251786077414399
  0.8377269285482618  0.1641259213756129  0.5138424855450565
  0.8381342927430183  0.1729059618639507  0.1951682208564886
  0.5013045079111695  0.8152185288093292  0.8387424346316416
  0.4913536394888918  0.8306538342591416  0.4964435567426232
  0.4984103678966249  0.8258625479350877  0.1604617084577858
  0.5017036940531193  0.5017544934668124  0.8186199713321254
  0.5038782059060865  0.4951449668972109  0.4848295881656650
  0.5038591372780075  0.4973310980628293  0.1548534265612629
  0.4963666239177446  0.1699083816270244  0.8342024007616381
  0.5039006348231899  0.1619987774522685  0.4948856781683614
  0.5118673942754203  0.1627974837407997  0.1633061222675791
  0.1718865490175855  0.8289851876033001  0.8394568401753376
  0.1648557920003252  0.8409368044991083  0.4984933735329937
  0.1644475573692553  0.8418793048423728  0.1658478064245906
  0.1705974328371708  0.4883985186712124  0.8389744160305634
  0.1715610463217158  0.4961533774878480  0.5209141125836452
  0.1645399653174298  0.5039099366917008  0.1662628830899393
  0.1644538528505001  0.1835846567433178  0.8091371547340952
  0.1490508142724050  0.1634948651696185  0.5100749132965947
  0.1535941477033180  0.1566270416846378  0.1883484333103946
  0.6660774543056573  0.8262472403002810  0.8243977251546322
  0.8416298030367232  0.6700701966283984  0.8870980463152194
  0.8326098156450588  0.8468071889395440  0.6833020229935090
  0.6414694504979094  0.8169474177551524  0.4955785454739726
  0.8317413226311537  0.6693659934080056  0.4819654883252913
  0.8036160273791562  0.8396623237943848  0.3258572900930017
  0.6532017579281048  0.8338912905499269  0.1239833217292623
  0.8084605925026834  0.6692975730652171  0.1641409516631240
  0.8633741118581968  0.8616198287845709  0.9957549462197722
  0.6428439301651701  0.5264956537878337  0.8500496047721194
  0.8326171030188471  0.3380724062002924  0.8097342335598022
  0.7746664491809016  0.5213147763639844  0.6895856824985515
  0.6644050829921020  0.5124123181173585  0.5027028845162955
  0.8230590645291592  0.3310281068134092  0.4991621925051041
  0.8241241546937038  0.5081976250015852  0.3429783472843526
  0.6546594351127800  0.4969705754873666  0.1533422580287125
  0.8898146472611992  0.3493653457191788  0.1824402152543754
  0.8299298434490652  0.4930312236445547  0.0133275833667882
  0.6478725824476673  0.1605351893977430  0.8341023208282812
  0.8055509870615438  0.0131476964900257  0.8165582113458246
  0.8111880135991199  0.1559386075314143  0.6772689276905480
  0.6660724341148255  0.1380468194697966  0.5125285315656473
  0.8567833300333947  0.9968891550213538  0.5087636718396510
  0.7840972825125766  0.1624441372042479  0.3699694842624580
  0.6687753210528420  0.1751604121588327  0.1679197181274325
  0.8430020964918475  0.0258476115434900  0.1905880659452407
  0.8510145639718935  0.1611950408515529  0.9872595390385602
  0.3239961854950347  0.7932611047899628  0.8109686337086913
  0.5009356048558505  0.6670021717781869  0.8299894080330822
  0.4884026579587996  0.8462013652652912  0.6724097473340348
  0.3360712019203218  0.8249567273732233  0.5491187997245235
  0.4994471992450356  0.6614925528256732  0.5061826864709460
  0.5049409479168550  0.8427524941638300  0.3337860944734188
  0.3291742289401885  0.8251394785136658  0.1736485858174439
  0.5144817396219110  0.6552526175633596  0.1555191483995133
  0.4740857214730052  0.8267413242431160  0.9910194317108251
  0.3323309978089754  0.5064627442150916  0.8098162570003288
  0.5018686720986005  0.3526235710252604  0.8279449758022330
  0.4991008465630498  0.4779118663338676  0.6587358406142227
  0.3264193182504069  0.4852880246259801  0.5306520682350799
  0.5338065998603163  0.3262163753573386  0.4842425092362116
  0.4714077735475081  0.5274468989796438  0.3268566521945185
  0.3395623802751639  0.5194456459581496  0.1605895917464149
  0.5006803038608066  0.3389298871826955  0.1434727855231070
  0.4663347897411332  0.4863358680058930  0.0006652063537855
  0.3294265947430123  0.1629737774583575  0.8268418293523503
  0.4984606912611728  0.9981643584539033  0.8406870298415934
  0.5323358863736426  0.1779254442010979  0.6464647938340349
  0.3474835126703986  0.1718218233140320  0.5302389146267031
  0.4794742890498160  0.9938658336547238  0.4931484492280918
  0.4957596261666034  0.1757608512735644  0.3419930538627879
  0.3146336105645085  0.1540517748800860  0.1702820215543788
  0.5231847262537918  0.9697150208274239  0.1419876389877917
  0.4985982201987187  0.1557294599036951  0.9836730200736615
  0.9956119307682364  0.7979332020671709  0.8419253165898359
  0.1646503083022050  0.6687955134966251  0.8386950667020185
  0.1434595362480545  0.8420951730481410  0.6729411183394192
  0.9759502138905206  0.8122192076997756  0.5157610891218306
  0.1927059484064111  0.6760520778877926  0.5157972425929017
  0.1269067929986527  0.8359345082184780  0.3581475016492586
  0.9808094309369367  0.8184380095781040  0.1713121930528554
  0.1863059338332181  0.6597579554370493  0.1864971772130456
  0.1596369088979004  0.8242315527104850  0.0126620260005156
  0.9946726423729242  0.5017334410536468  0.8253172297850541
  0.1825156695124883  0.3326200943455405  0.8669180127627770
  0.1423191229783275  0.5087477812371789  0.6563934357662590
  0.9783212925300702  0.5007989973069593  0.4984921589706957
  0.1731918796046788  0.3270400915078566  0.4967121369521257
  0.1561066520011195  0.4953095400885928  0.3246995693105279
  0.9952206424441464  0.5447409300849380  0.1565553421027176
  0.1557084071449508  0.3157944187050682  0.1342213734069072
  0.1368383600017444  0.4967869741533157  0.0016595005043384
  0.0183030639645307  0.1925206976374839  0.7967920196537280
  0.1561422892832139  0.0182707379754460  0.8438903164463943
  0.1825380984295917  0.1810750066669165  0.6642315325857189
  0.0091931812504458  0.1597936181439812  0.4469365804859313
  0.1456655963567128  0.0008566671552590  0.5061320392231187
  0.1589302765529117  0.1883799713656601  0.3502855994087575
  0.0011852558854731  0.1349921446835108  0.2083812619123166
  0.1705644372280745  0.9912979560700697  0.1781565552427794
