Cl O  Li
 1.0000000000000000
    11.7780000000000005    0.0000000000000000    0.0000000000000000
     0.0000000000000000   11.7780000000000005    0.0000000000000000
     0.0000000000000000    0.0000000000000000   11.7780000000000005
 Cl  O   Li 
  27  27  80
Direct
  0.6446768126017624  0.6802277923543388  0.6659856849779239
  0.6598250764951423  0.6568313954096867  0.3451719688013914
  0.6877530458591214  0.6661227969895490  0.9674175073377186
  0.6790551199034822  0.3239277844197166  0.6713870864296837
  0.6746626148672787  0.3568876246562826  0.3346060257886908
  0.6872758038468190  0.3474271964899459  0.9889480215655140
  0.6313080849020329  0.0096684967002038  0.6552610594009866
  0.6688632823212770  0.9687383216436428  0.3253800283885770
  0.6708084443269680  0.9938776161185398  0.9915396988779488
  0.3372950218498664  0.6423296835129533  0.7086084411586118
  0.3495001583826814  0.6683630571482492  0.3380668805714923
  0.3258488855397897  0.6853734069861355  0.0089760475856824
  0.3465007158168982  0.3312969792213205  0.6727765861840299
  0.3504237115540968  0.3446334198066275  0.3170143257068567
  0.3331680808601250  0.3304244781518320  0.9810836433891615
  0.3223832534786159  0.9778134830580330  0.6775195734140326
  0.3700993778695806  0.0266159094380095  0.3176421127159988
  0.3064500787001397  0.0223212171522065  0.9956609731754683
  0.9783021648285535  0.6624472480778674  0.6613282434191119
  0.9855294797762126  0.6660080613377960  0.3330845638406646
  0.0100566500349354  0.6811228437971606  0.0006412972650257
  0.9956419830347294  0.3204419298962809  0.6633883435036055
  0.9821046683947739  0.3428144103382910  0.3621706588412169
  0.0160130450961916  0.3366294745053727  0.9787734421544623
  0.9631866511014719  0.9985324988729269  0.6637051823217492
  0.0128855433832798  0.9728027303874028  0.3278632212495863
  0.9885605452426615  0.0047903182487867  0.0113069280086746
  0.8270822076431829  0.8410262860556019  0.8544079811583315
  0.8303286516949738  0.8235440382795243  0.5263440567999915
  0.8204532885622229  0.8094065331305574  0.1690335127907107
  0.8328346985698908  0.4938303739517821  0.8165780902326849
  0.8263495836650167  0.4978708178631993  0.5139083963430120
  0.8432023642874397  0.4827078982514231  0.1574730861683902
  0.8298814498568424  0.1597353886823305  0.8504576577694275
  0.8317819969407860  0.1427254841839534  0.4906873821941941
  0.8526634807057454  0.1785139691631434  0.1560016743083950
  0.4867433094198914  0.8276981652220364  0.8311414209233380
  0.4755025758371152  0.8193670775658096  0.4899209933841427
  0.4938968384427767  0.8446046294980318  0.1394986572637446
  0.5150108299169873  0.4959545624402014  0.8412125714985298
  0.5157773401832686  0.4926867825773753  0.5203096254785028
  0.5039553170846592  0.5033109638522660  0.1725725246573898
  0.5081728441791279  0.1693124958000972  0.8281161081806069
  0.5096788204578543  0.1885805246443078  0.4837957128027623
  0.5327358686964392  0.1847139655685573  0.1552820360254649
  0.1601834079192485  0.8494947002223248  0.8371601439057723
  0.1689881242649411  0.8327118783882678  0.5145391995151941
  0.1566952356060940  0.8260170490599353  0.1694957853226900
  0.1431001438580709  0.5209703352968049  0.8500636537599494
  0.1834975891176769  0.4945193951434496  0.5153684621668732
  0.1807139540295471  0.4926927339326355  0.1635025681485143
  0.1550778839646390  0.1605852887717233  0.8009030301852431
  0.1644361978057697  0.1721933464788312  0.4994809751735074
  0.1730776972213133  0.1767551412566739  0.1874371477687720
  0.6681181888368509  0.8194366315000762  0.8425532863339055
  0.8127023568303509  0.6763660915277804  0.8044306049236161
  0.7897222713560508  0.8726107357031836  0.6829712172595206
  0.6327880290621717  0.8575385843804795  0.5029960804056205
  0.8358815495507069  0.6660644170284241  0.5218285166029983
  0.8109169502522597  0.7772470287202725  0.3544498887397456
  0.6539847727142875  0.8506346074244276  0.1595010509587487
  0.8576144414865792  0.6479066701875972  0.1472431113300271
  0.8285293991066852  0.8283098187953197  0.0251224653441266
  0.6740534713894111  0.4862928003302625  0.7885872875124884
  0.8600072911553205  0.3291488233702203  0.8554538002677476
  0.8564185024771275  0.4757807636408890  0.6731841932912459
  0.6572661556748515  0.5368354743438871  0.5170757723892015
  0.7829158642379398  0.3444474298333905  0.5189982220799195
  0.8394587594016587  0.4697177901053969  0.3440125071462905
  0.6840251493123950  0.4928036234704449  0.1632925298417765
  0.8454332723164448  0.3316154779412716  0.1649614295314300
  0.8045775018523281  0.5061988286282710  0.0077123891371018
  0.6694853406449136  0.1861588898491031  0.8468314605724554
  0.8211360345153506  0.9999785043195081  0.8682658940662938
  0.9826860993666293  0.1216541137250509  0.8236765590980599
  0.8286183860377201  0.9813942088138038  0.5026327238514625
  0.8243647459575902  0.1575452494611287  0.6514810176462651
  0.8619401455963914  0.1415194946714857  0.3518688628856308
  0.7023418013872130  0.1461411977346784  0.1392622831978447
  0.8214533591584136  0.0034181256908950  0.2169158095467496
  0.8632282293988530  0.1533852015274139  0.0213556395454105
  0.3184466141582696  0.8441478731031560  0.8631443277679982
  0.5052288261395443  0.6597661018049854  0.8489917620465359
  0.5063207581308754  0.8211496501652052  0.6668429635332771
  0.3266668122766870  0.8027989903460426  0.5027317511641611
  0.5046217069321735  0.6603644761638107  0.5031862403760807
  0.5152857663358493  0.8189048151551828  0.3422664119012453
  0.3400870171751475  0.8550463025449400  0.1523227549863362
  0.5195562078611018  0.6650526056633527  0.1245763930499688
  0.4979527477807888  0.8593090923277149  0.9911966027411246
  0.3474458477118083  0.4990641253210052  0.8625812566866354
  0.4995160109145718  0.3228646173121437  0.8315281375590281
  0.4859259494787331  0.4765925365954765  0.6716900792376301
  0.3380715117696962  0.5374265613289242  0.5218316339795631
  0.5569631477091675  0.3533168115001002  0.4815463434268270
  0.5191739446205046  0.5005700206289116  0.3172853350409551
  0.3293264405541890  0.5207179087658662  0.1761430746584076
  0.5046614231193188  0.3340084085808330  0.1356914396776049
  0.5190332983063938  0.4944255904486323  0.9963710448825479
  0.3072266293480845  0.1545394203219284  0.8372620861679860
  0.4872632635396743  0.0150794754817512  0.8156673304508087
  0.5222268684128109  0.1887849557217697  0.6508038181942986
  0.3531357481947582  0.2328490734669293  0.4849289399122259
  0.4606556043644642  0.9949913532986274  0.5135703836554727
  0.6678280703892637  0.1452366018564647  0.4755880246760145
  0.5052651820376651  0.2215068227187434  0.3319095355454439
  0.5295441204334693  0.0190572985853530  0.1835254879463550
  0.5113888836880582  0.1599077553151246  0.9877245271739261
  0.0108134406399098  0.8609364438654238  0.8469751837777214
  0.1766280045173640  0.6738056727473219  0.8623615018815136
  0.1864128422735024  0.8099212646324588  0.6830914589270248
  0.9997019092845083  0.8274997057425396  0.5290799393471041
  0.1542264757937261  0.6775189540610621  0.5145711020182222
  0.1848068872749438  0.8343423068171316  0.3623245438843761
  0.0003646291928704  0.8343589868060243  0.1980187181497073
  0.1715230169944362  0.6723492101249449  0.1369267709909222
  0.1611706851259000  0.8844430016105062  0.9947644655230580
  0.9985176598045906  0.4969249977163203  0.8227172168242629
  0.1368895200325495  0.3072117635120508  0.8275210536253964
  0.1882157385486850  0.4712696363535787  0.6781325225204339
  0.0105789415545575  0.5313443572237133  0.5313083372806935
  0.1485196321667189  0.3299546044841375  0.5331792085591553
  0.1908017845936317  0.5023793945696838  0.3368214076629864
  0.0325045883226329  0.5006323681602101  0.1318213280071326
  0.3601374569303908  0.1825052030587858  0.1673520929880351
  0.1686158305565401  0.4779332919162620  0.0011043342754098
  0.1960957377674267  0.3221844016971370  0.1333631437520909
  0.1576053071360013  0.0165369375876861  0.8357094706970156
  0.1378959873235097  0.1315278574414044  0.6481144938686101
  0.9871159309285354  0.1878296012608512  0.4995853465603173
  0.1944322934867619  0.0310700459198234  0.5000546939176826
  0.2028517810355796  0.2143599737884972  0.3471576567024263
  0.0383206767676709  0.1616117153697810  0.1102982011014812
  0.1688704534209678  0.0103452115924203  0.2008241141456766
