Cl O  Li
 1.0000000000000000
    11.7780000000000005    0.0000000000000000    0.0000000000000000
     0.0000000000000000   11.7780000000000005    0.0000000000000000
     0.0000000000000000    0.0000000000000000   11.7780000000000005
 Cl  O   Li 
  27  27  80
Direct
  0.6753964832871119  0.6654704483514179  0.6635813247542123
  0.6861225258533968  0.6684671783947355  0.3219512051091896
  0.6549851161023066  0.6557778768445193  0.9942761019952717
  0.6663287635971352  0.3418891900372044  0.6773422346199728
  0.6780905444057626  0.3401506655638168  0.3370947929377223
  0.6509007860065208  0.3279676947929406  0.0102467099633235
  0.6665426075324069  0.0009479985939232  0.6826329894463827
  0.6521453479933031  0.9906594729966123  0.3280417289661418
  0.6439800076053465  0.9933491901572939  0.0022703257374659
  0.3370647099894155  0.6843434104441395  0.6675967891677002
  0.3569469531090878  0.6484752805422567  0.3371162097195775
  0.3329915538667715  0.6606448708851497  0.0105241375000656
  0.3529130678340798  0.3500664736210918  0.6733643406669035
  0.3336911822358416  0.3309238989409144  0.3345797583017999
  0.3084339543943913  0.3507867495492283  0.9841002036454745
  0.3396962413924231  0.0019859334860469  0.6866397494967350
  0.3244943545735854  0.0274602785714205  0.3419433661168330
  0.3360707324474199  0.9650744253021580  0.9890350879230572
  0.9936560207399043  0.6585537589766466  0.6604341914129896
  0.0097717834520139  0.6845528819551384  0.3170403856123055
  0.9988396785309098  0.6616501236138120  0.0133099259059363
  0.0092916884834801  0.2989427125186839  0.6744516573215021
  0.9831205607105458  0.3074361466687462  0.3477293789629662
  0.9969404046814796  0.3225832567279431  0.0189162214870343
  0.0458622959151571  0.0109818450267835  0.6661715407963823
  0.9840182108106176  0.0207828124232733  0.3358381258133697
  0.9992926222597490  0.9834961964787008  0.9876345166742631
  0.8483751745086706  0.8369076575897381  0.8214312255645694
  0.8381905838148438  0.8394456879385030  0.4937683901624458
  0.8153387561192144  0.8484717481416577  0.1495590158999928
  0.8306612692169507  0.5109835895734616  0.8447713882748230
  0.8270023598087519  0.5115342721193844  0.4893222419580796
  0.8190676243157794  0.4789003596754924  0.1517843268210747
  0.8184794522802576  0.1766244066401329  0.8711638270108236
  0.8234921937966506  0.1643303034189878  0.5196635466082268
  0.8093872389172707  0.1580317958898520  0.1580787149597498
  0.5015890152387933  0.8280597331902935  0.8109850181517486
  0.5169001519363380  0.8430578771836381  0.4977294016995725
  0.5038286681163445  0.8183571617871411  0.1816326203917502
  0.5204186174574758  0.5241762867107979  0.8219772927737595
  0.5280839225473372  0.5038754851805223  0.4884921695982019
  0.4922499218460288  0.4810485964974125  0.1625740326944809
  0.5069396884719060  0.1622276126832435  0.8196181269660832
  0.5098523708042005  0.1742971433354845  0.4928869823027718
  0.4958298037340364  0.1637873535863624  0.1533104445912433
  0.1511838145681497  0.8435592485002611  0.8317841545929021
  0.1496549539114580  0.8376697549463364  0.4946130777553097
  0.1711421803798505  0.8313001854014140  0.1713169176978517
  0.1741056314162024  0.5230022907935306  0.8251798506411820
  0.1530999384135654  0.5185203130013726  0.4968789651784980
  0.1642703792033438  0.4793338369596561  0.1736078858324942
  0.1828146098887535  0.1679670673079527  0.8220739719326821
  0.1725214170827785  0.1664982465141932  0.5190924189302873
  0.1579320643948903  0.1546112139685824  0.1728409909548187
  0.6841891855874065  0.7985541283720046  0.8498662342025624
  0.8774759252276190  0.6831688477311332  0.8318379192172946
  0.8215929422458249  0.7872700349151889  0.6626614962405110
  0.6602918221802307  0.8089298102007204  0.5027821023155705
  0.8268545880624927  0.6758831743302230  0.4680160257575022
  0.8131986163792811  0.8546492549018532  0.3221706360310321
  0.6605751795643592  0.8394699791844634  0.1743610561562021
  0.8161515412090503  0.6315527435585173  0.1682065855942592
  0.8627166451528852  0.8144155832467829  0.9826229125448553
  0.6811655732318926  0.5232208310363544  0.8257848646072363
  0.8161903262317671  0.3477461333215421  0.8662503557195887
  0.8536515570145542  0.5332725486147779  0.6601414009283468
  0.6778274297266014  0.4779581832155075  0.4729778771136082
  0.8415395369245874  0.3352859791915525  0.4717436389063591
  0.8047893918818818  0.4898587075239789  0.3294509451151259
  0.6622023691604280  0.4653286786157637  0.1572951502145339
  0.8144279963373382  0.3058998468179792  0.1814102137922775
  0.8415737066105717  0.4922417192381064  0.9982549347037837
  0.6507518806687835  0.1768182912683070  0.8482717568177199
  0.8235989133372369  0.0152389896252107  0.8594262969627469
  0.8002853900267197  0.1877546150537893  0.6927085124458476
  0.6671106583191913  0.1738389092231462  0.5130360445166146
  0.8121357933976927  0.9996809268773639  0.5235320084982441
  0.7920895236396728  0.1346768964903823  0.3173591070020111
  0.6471135378488311  0.1407982803510568  0.1295623610118468
  0.8319729964988136  0.9997437300276701  0.1114002417467470
  0.8181038286468895  0.2063780858077925  0.0120897070370459
  0.3368583153695717  0.8287188356640195  0.8071682156448069
  0.5275175316623599  0.5215818197005848  0.6648210284918026
  0.5067328485125530  0.8457402785042277  0.6670614101067326
  0.3142023763299083  0.8520951113599344  0.5207073009617363
  0.4871572621304259  0.7934691608842891  0.3335611049024494
  0.3296723170479193  0.8441330077298463  0.1613814134886439
  0.4828362138427559  0.7993435128948985  0.9907130639355503
  0.5002500412760448  0.6402757704683155  0.1798618897747601
  0.5182323648356275  0.6737614554518099  0.8267689943161780
  0.3358367470207060  0.5238898524355144  0.8428889786545297
  0.5128823798544838  0.3287134562866306  0.8376376971028052
  0.5011012065344981  0.3523503770517009  0.5023585844422505
  0.4181583423485306  0.6028862798319314  0.5024711743672770
  0.4986373454567322  0.1510846716081629  0.3333550746512952
  0.4674302198297356  0.4747152613943809  0.3221227620337851
  0.3345387240501058  0.5011785495977662  0.1545846216553924
  0.4911880705142788  0.3168757046062620  0.1272536299035958
  0.4834758428343038  0.5003560884949562  0.0057174882281108
  0.3494411605343664  0.1588937403887002  0.7903704951798941
  0.5081699995943914  0.9963333488482427  0.8011686017758616
  0.3248351607544101  0.1859583381431308  0.5271580842389865
  0.1574970587865015  0.1971473313720115  0.3505887824957876
  0.5312061978468603  0.1803288823772125  0.6546682593301838
  0.4950481519244399  0.9916204372171448  0.5148983733735802
  0.1555231420184049  0.2067701465175938  0.9754021790066486
  0.5054012024090024  0.9608063698857535  0.1679626002712917
  0.4978660174266690  0.1160116751573847  0.9820751904945340
  0.9947638340821586  0.8501080874403716  0.8200550455100913
  0.1712909237759482  0.6655829168202146  0.8712161341604584
  0.1717258787775745  0.8443537341848069  0.6462579417267160
  0.9885361156085848  0.8402433314850235  0.5409470100084212
  0.1538510945881291  0.6727710608685934  0.4902536492990222
  0.1534778292298897  0.8235398610544372  0.3180617515341214
  0.0033719624496872  0.8075404319026038  0.1765163374394507
  0.1649462021513727  0.6570361633852692  0.1792636976002797
  0.1529586848183055  0.8437284775137855  0.9952788686667301
  0.9861332015199674  0.5012637713856773  0.8484366134069715
  0.1917472904938952  0.3140118881637579  0.7793145774934669
  0.1641865541620753  0.5213724291604058  0.6687370607384925
  0.9905521207558149  0.5002986396982598  0.4713641691590473
  0.2181458830122059  0.3733651792715729  0.4992773613484004
  0.1827133356358035  0.4651871011372244  0.3360920098190661
  0.9967251567248431  0.4982672437694095  0.1912236949759442
  0.1914708561148655  0.3180957121919194  0.1386380360848755
  0.1558408715155673  0.5023640028860449  0.9911855267717269
  0.9681523809812285  0.1439741886973900  0.8264199997182814
  0.1675974600703707  0.0128165678948505  0.8646885905459732
  0.1687563751724376  0.1610553171531935  0.6737304502289371
  0.9814660333414188  0.1627951169169940  0.5329020732296083
  0.1453283490012746  0.0011460361395382  0.4989982954177251
  0.3307893904788193  0.1540355721674352  0.1642040157838353
  0.9841602817050905  0.1650818239622409  0.1788754020336023
  0.1620528313596166  0.0005859008829803  0.1840961575862365
