Cl O  Li
 1.0000000000000000
    11.7780000000000005    0.0000000000000000    0.0000000000000000
     0.0000000000000000   11.7780000000000005    0.0000000000000000
     0.0000000000000000    0.0000000000000000   11.7780000000000005
 Cl  O   Li 
  27  27  80
Direct
  0.6460854432117619  0.6609316949086482  0.6479008455191035
  0.6731179967642299  0.6786591628126961  0.3525830186755827
  0.6470289961756848  0.6673059607611230  0.9696466474101073
  0.6546398079037750  0.3308811514848447  0.6567633446661245
  0.6642127450243185  0.3478281011707743  0.3517782092115039
  0.6775709060320551  0.3448035171654220  0.0027854843979285
  0.6688664619254165  0.9995398182201058  0.6485558184810165
  0.6590043375217142  0.0026704162761468  0.3314737235089245
  0.6960496212028391  0.9873004194858189  0.0278710737113789
  0.3248489378992885  0.6448118216622610  0.6602412438065082
  0.3263408657407678  0.6737875939207431  0.3221676257252561
  0.3315417631998294  0.6662134214886430  0.9974621878418227
  0.3261489041695655  0.3445626289763145  0.6708306481142657
  0.3242979517127911  0.3484436008580016  0.3673806384335240
  0.3351151066941326  0.3142019925429238  0.0080929483121199
  0.3498400146558323  0.9766335488764907  0.6671221440788977
  0.3518035165522234  0.9835441705004481  0.3211047015301429
  0.3466389547485776  0.9884109178331119  0.0137377322337900
  0.9877881496442017  0.6819240682114170  0.6384241017325634
  0.0096352559821740  0.6619543563635819  0.3299124239175231
  0.9836169441845427  0.6900002597266991  0.9905125025416630
  0.9761766797761379  0.3123673961917627  0.7105792235875062
  0.0117259984613114  0.3249750386701420  0.3423744606190747
  0.9770466808715629  0.3449487383308555  0.0010473119578321
  0.0240752567276464  0.0186777470413471  0.6776470146432204
  0.9969639438708282  0.0004445630719763  0.3276811110344184
  0.0069908755221885  0.0237389129035285  0.9809011346457396
  0.8407112782709527  0.8365865931830768  0.8212134604017983
  0.8295274266891337  0.8381348362297744  0.4928026165657334
  0.8393041673632852  0.8416267838074052  0.1889221660065730
  0.8295066981592475  0.4877577020695675  0.8198749317785591
  0.8239678082553515  0.4871040246407725  0.5128698982515093
  0.8347323929318938  0.5127316534977094  0.1544886770911129
  0.8141573837201351  0.1572935293338205  0.8337230472173174
  0.8448500207576898  0.1506974034349071  0.4926222135790674
  0.8300723603068461  0.1600241082922317  0.1606962240254794
  0.4863551570516085  0.8287448121913130  0.8328688050677090
  0.4775858553182557  0.8269130093334373  0.4830427583075245
  0.4973179178097776  0.8268021602810380  0.1713570648390655
  0.4891587312041309  0.4937729433067474  0.8351083769744404
  0.5105005745654502  0.4910439432793235  0.4937597726273940
  0.4883869173491482  0.5008408456876221  0.1527570756228241
  0.5008149665490602  0.1913801493783182  0.8463940898476534
  0.5048512404632541  0.1599926410073605  0.5028077759227328
  0.5236496284308774  0.1755344433280044  0.1653779770729568
  0.1812261364500823  0.8499905836748587  0.8526129726968015
  0.1784579870312522  0.8330302738036510  0.5009040304914044
  0.1649484713184773  0.8440346940486422  0.1653687868849018
  0.1444724995407697  0.5023884814531706  0.8247557718293871
  0.1467942467083146  0.4914057209024941  0.5341930373534390
  0.1874141086887457  0.5047976062567058  0.1379828969172345
  0.1982389154125646  0.1678502720371136  0.8440706321715387
  0.1812404480424940  0.1584826870371081  0.5086301446669867
  0.1745845454358129  0.1614770790480020  0.1542174754513172
  0.6432095621170975  0.8668964811551152  0.8030225560102354
  0.8175461744732538  0.6928240360987784  0.8278684520867559
  0.8419400914332709  0.8157349066798291  0.6545063640331216
  0.6731625712005672  0.8258284861721243  0.4952774087041815
  0.8285058988256782  0.6521854293735478  0.5354988132800417
  0.8281703557481447  0.8081218682541924  0.3299506623872058
  0.6632981391284987  0.8524617321264126  0.1838853154285642
  0.8507011341429970  0.6799989869690533  0.1776142468860111
  0.8446599012726397  0.8267370597418640  0.0126432167672376
  0.6613277142270089  0.5354506080779350  0.8036548571425852
  0.6639755410075149  0.1699416875861913  0.8183757570487016
  0.8519365869125441  0.5001915406831000  0.6805346769921755
  0.6715631141103030  0.5087349743144308  0.5221117456896123
  0.8248620499899748  0.3166757725461234  0.5142868066283808
  0.8483814820954162  0.5147031715052672  0.3478911240329168
  0.6734703008014759  0.5120113370841629  0.1423377201581420
  0.8264296450626208  0.3390442246898452  0.1501087022892839
  0.8111525565948307  0.3449123419473248  0.8528520898921369
  0.4923042856143661  0.3399907735741031  0.8229717417552337
  0.8444692959626701  0.9876723715985734  0.8436827009735507
  0.8648120808630471  0.1560399492219753  0.6605901470693197
  0.6545829663882275  0.1721803890566090  0.5439972271355259
  0.8510599968166525  0.0005859161411535  0.4638736049557253
  0.8465196390633696  0.1398007148657502  0.3268470913470722
  0.6808075121292321  0.1301803086020590  0.1704530256352384
  0.8440137541300924  0.9986130807763115  0.1480704845688596
  0.8414573434052172  0.1651068794464582  0.9941235961503917
  0.3346864471737510  0.8331261432543748  0.8134648768237025
  0.5230445739794132  0.6618303900383640  0.8337538970996869
  0.4680151853806684  0.8259148820369234  0.6739957164920891
  0.3450915214100787  0.8057269943149542  0.5097369752891735
  0.4885882108073404  0.6579554099973473  0.4554700484157165
  0.5103206169182934  0.8425818346277494  0.3190825970028724
  0.3262168184447299  0.8347272602464463  0.1720676445115228
  0.4881538023587481  0.6643205261471771  0.1726452093696418
  0.4794885886143356  0.8348212673683131  0.0069652696015708
  0.3104755040239310  0.4890146525917896  0.8205680419966297
  0.4655717694349193  0.4942233434922635  0.9964279179015544
  0.5103628432008546  0.5007290654707942  0.6705818652702211
  0.3460198518598662  0.4967829120791135  0.5067644960064064
  0.4859730152672411  0.3319764640079051  0.5205831785521426
  0.4979319195368373  0.4647060788759138  0.3286682465421352
  0.1786131676075294  0.3532131060315109  0.1664765992782794
  0.5379113833029318  0.3413755365354870  0.1454520400746131
  0.3317401214658011  0.4846254673592006  0.1561939630429446
  0.3428365245621626  0.1404014879851139  0.8673460991967179
  0.4884100750036306  0.9847385558822933  0.8804083118578364
  0.5165717666391589  0.1597318238752130  0.6731331343480345
  0.3499190421760237  0.1605315321776400  0.5053400168578771
  0.4758238897925163  0.9994101920029498  0.4990908509220984
  0.5302771305224898  0.1968789992117894  0.3240794075104565
  0.3535434580149586  0.1770089826859171  0.1314451408580935
  0.5018334984921807  0.0137494302563570  0.1816478082777395
  0.5361257338123810  0.2046446271474674  0.0236358317197260
  0.0273916039003646  0.8301086846811709  0.8217469771339091
  0.9971554120260969  0.4633011136949728  0.8405721259574985
  0.1771775347285633  0.7202872329567148  0.7564917836940245
  0.9866872602559228  0.8254130248953813  0.5121451689282800
  0.1613668181937851  0.6450566774215420  0.5140852702577292
  0.1839123636419108  0.8421275883282893  0.3582555914030808
  0.0034173270704975  0.8448188154682447  0.2063991709220641
  0.1797532772366819  0.6853022517871332  0.1647222247669026
  0.1386161028094661  0.8572739089219925  0.0015295453783702
  0.8344023864770813  0.5309167279902417  0.0043883211444252
  0.1778523860267539  0.5484172751716094  0.9779264904157974
  0.1722585371788725  0.4820759796394243  0.6807294927847781
  0.9894931920509893  0.4845480592554068  0.5214239390602429
  0.1457005434802990  0.3231922231582867  0.4879749743435587
  0.1688999080561545  0.5124102803136529  0.3154058537715976
  0.0174762993803757  0.4961107733033885  0.1663885536330253
  0.1927613811474237  0.1824237848083652  0.0171233815721319
  0.1866777600528653  0.3384496154741439  0.8369162835620149
  0.9897255276972483  0.1693509649698437  0.8316006400869351
  0.1921710431424705  0.0138809040947797  0.8549050946656269
  0.1693746197303360  0.1622803703092083  0.6734106618331324
  0.0261883673957724  0.1244663901496657  0.5021718311034890
  0.1803679874584154  0.9671085414206329  0.5906050431868413
  0.1873486640235873  0.1506626568318311  0.3260428689214376
  0.0206134480073733  0.1627524909171541  0.1772710723087052
  0.1835320639436954  0.0095481985393868  0.1794752599671542
