Cl O  Li
 1.0000000000000000
    11.7780000000000005    0.0000000000000000    0.0000000000000000
     0.0000000000000000   11.7780000000000005    0.0000000000000000
     0.0000000000000000    0.0000000000000000   11.7780000000000005
 Cl  O   Li 
  27  27  80
Direct
  0.6667274073549586  0.6301940929016675  0.6924227318119591
  0.6630218587545157  0.6336826801902737  0.3319498926754355
  0.6525597405755909  0.6723534125948405  0.0068986938928442
  0.6873652094375248  0.3232018325214520  0.6800622932466370
  0.6524272318288767  0.3422596712386374  0.3302709627254708
  0.6782046971879794  0.3272972151341496  0.9865352133569766
  0.6527203057113892  0.0192647479344700  0.6442463490381592
  0.6533794486705254  0.9847448150777866  0.3180483364955642
  0.6585827954968880  0.0099134279479054  0.9986288353584666
  0.3235912709457994  0.6772819849439807  0.6687551231061590
  0.3354389010661920  0.6904982850753084  0.3595295863004570
  0.3561881189968968  0.6652951457415299  0.9609704621371745
  0.3206610584310034  0.3436917211588242  0.6799912008667929
  0.3410930934175800  0.3327997288972198  0.3281924215367522
  0.3415902137661601  0.3280393936690605  0.9961932077934533
  0.3422702067114122  0.9988423734625468  0.6410809567770565
  0.3598566639326600  0.9946747038341196  0.3107914887065272
  0.3402700250336211  0.9749374623730487  0.0052153092826177
  0.9947359425384529  0.6633601860591425  0.6682841563323962
  0.0169604605099678  0.6468063901890823  0.3617445430779483
  0.9904315062368386  0.6974035575644784  0.0039915735600315
  0.9897870069769926  0.3294652695642323  0.6751498340906507
  0.0140715620908404  0.3338614587727400  0.3310769260237327
  0.9939518802655040  0.3343159277419545  0.9905159552056008
  0.9816166596824791  0.9953669929574701  0.6576520804025683
  0.0141699644100232  0.9895006437737526  0.3225670750399422
  0.0211685102230048  0.0052657515964864  0.0125560238635021
  0.8182639323693813  0.8446134473046601  0.8350523451846635
  0.8306008084261219  0.8339844887513973  0.4937919990312732
  0.8386242069668500  0.8338222232283815  0.1768299432996358
  0.8317136713743887  0.5000861309966426  0.8426187444180562
  0.8232216137282643  0.5034343958544176  0.5140876993998970
  0.8576721065158965  0.5120524440962568  0.1845764823645299
  0.8479543125986090  0.1548759371579152  0.8570304977339160
  0.8568115486423385  0.1699120463444255  0.4762966744677871
  0.8177884717151159  0.1558141156836692  0.1760735341431331
  0.4907244155259169  0.8286594427827728  0.8202652921187148
  0.5056385927790585  0.8230043597523662  0.4971676320261637
  0.5037926200277059  0.8146915715014298  0.1688332954935216
  0.5153094236208224  0.4780076960869834  0.8319022564085156
  0.4727934679515405  0.5011040961440241  0.5079059821570684
  0.5015688374308489  0.5018317809021785  0.1634018235035332
  0.4820726834230126  0.1634775685660262  0.8485612738589943
  0.4940003734415497  0.1938948946946770  0.4936755629923030
  0.4978593212602326  0.1773007955990275  0.1676717488398090
  0.1466095645743075  0.8531518202597492  0.8326526939670531
  0.1705609760037452  0.8403919526400181  0.5043464239448479
  0.1734742656171888  0.8243773009740494  0.1965284636290275
  0.1604664855897264  0.5017109724389355  0.8178646692512660
  0.1633114155884964  0.5058607674425845  0.4996183353457008
  0.1432695283761016  0.5162813071055071  0.1270533746981930
  0.1616419187390463  0.1809021752397101  0.8398880035180052
  0.1570016328726939  0.1632375710559372  0.5015251171827743
  0.1944120645873665  0.1791998244800986  0.1614588983167411
  0.6562569491815873  0.8329074958763319  0.8634619289852178
  0.8279117674983030  0.6871659309836375  0.8462411359864943
  0.8210310291675531  0.8490599598777158  0.6929875032805389
  0.6735135312826924  0.8300402381739832  0.4796404454450594
  0.0173237295245481  0.4829111674819644  0.1651414613256939
  0.8305546550587971  0.6610865254372468  0.4820561693704136
  0.6710394273962134  0.8396601383700504  0.1766480625955071
  0.8456320694847926  0.6685011448687966  0.1850976105612009
  0.8036867556685310  0.8420725829771998  0.0058890472320350
  0.6635714481943703  0.4739517867489713  0.8385799199230362
  0.8382318223737691  0.3203928535667034  0.8404549611987213
  0.8381168438095566  0.5250038886757959  0.6670510112312155
  0.6475092261717293  0.5222789371893655  0.5290737382556715
  0.8292246283716439  0.3246752990160013  0.4660123682092926
  0.8230153000792403  0.8582389739596011  0.6616368163899163
  0.6831735120345940  0.4763882392042119  0.2062550833656806
  0.9071242250421281  0.2845322944364783  0.1810353854992392
  0.8321183635320893  0.4763498995210043  0.0009264699851806
  0.6848105800706868  0.1724937199650994  0.8594334687551410
  0.8041447266257047  0.0150245173812117  0.8390683359084804
  0.8736243296797468  0.1641162663931456  0.6659083105358271
  0.6615019959801819  0.2286960316177481  0.5152718166696478
  0.8192258657094141  0.0046046479415989  0.5061124784969905
  0.7981797682676629  0.1829550081931205  0.3382309813569471
  0.6723862150430790  0.1708978660763193  0.1397569979621734
  0.8791373089212851  0.0097804738616820  0.1639888821902817
  0.8407151974191232  0.1578074350844766  0.0130855110321554
  0.3303715042463879  0.8027770392411211  0.8430278899708494
  0.5031362705618553  0.6627926615826870  0.8376778240188859
  0.4992881323476248  0.8129499701368871  0.6529250039386699
  0.3178833544554290  0.8386418493393892  0.4831819876498594
  0.4604693043135194  0.6505016959808118  0.5013856449455515
  0.5083860136680023  0.8076169080570959  0.3208123968879910
  0.1530551151123237  0.8529603242707612  0.0161101380532557
  0.5141726742806945  0.6534982235970798  0.1855318368254484
  0.4842590979865004  0.8259314548905975  0.0056247856771204
  0.3069704717222985  0.4834971533053498  0.8535019513457048
  0.5165934993677004  0.3227075259088623  0.8600241508860789
  0.4732285241666918  0.4797657345279591  0.6895297253888925
  0.3047310819999119  0.4785217393369158  0.5405300566463466
  0.5077045227625825  0.3556441477628312  0.5064857539765822
  0.4764322156255922  0.4955298219918459  0.3267927801872175
  0.3530158847015151  0.5085917512550951  0.1357193880294516
  0.4962010793547442  0.3242660320069781  0.1765347034476918
  0.4894702584969803  0.4982474051336683  0.9890543610575144
  0.3274572227404010  0.1880891856966108  0.8495828017224502
  0.4848967836783715  0.9977137531499244  0.8100679080353487
  0.5011544692601740  0.1938712512152755  0.6614176688659434
  0.1349220137647941  0.3468263445083772  0.4704507432149514
  0.5101733230603603  0.0119555145553165  0.5102719090282037
  0.5119230215068896  0.1610113087277217  0.3404817677222301
  0.3391069601770360  0.1533431797805173  0.2050414117466779
  0.5152512056013374  0.9995496534159484  0.1520938031694465
  0.4948021464998834  0.1663153022831803  0.0072511105301366
  0.0054112641608123  0.8475382752599350  0.8618482615160670
  0.1620637159824442  0.6769617048659926  0.8223010604718383
  0.1609510655825794  0.8441669742039077  0.6722682850385954
  0.0116160587198879  0.8175545377503254  0.4731201082335425
  0.1768668619988415  0.6730957935568010  0.4982530863519051
  0.1547653200414624  0.8568734820533458  0.3313130166917631
  0.7916699068988792  0.8503062627371253  0.3284179252700848
  0.3323810380538739  0.8428772709850489  0.1719978881677783
  0.9998820303434781  0.8153819287116248  0.1897094453057222
  0.9767281311992708  0.4878211570279450  0.8356690999195987
  0.1259113582601195  0.3374954291684194  0.8126388935077999
  0.1526011724534383  0.4667854643365469  0.6605708355463530
  0.9945923297191875  0.5112258129962235  0.4977839009361796
  0.1212692707930250  0.2012892106931450  0.6862127557529966
  0.1559504595678141  0.6607828038919217  0.1830518827972338
  0.8408539411618798  0.4855115048766179  0.3446884852122464
  0.1736750327650518  0.2003620138348356  0.3147852326975856
  0.1609710653750868  0.5419379235159566  0.9794244862685749
  0.1967167167905666  0.3525887948459289  0.1600435483852397
  0.1664779515624299  0.0136477831826854  0.8144455954115164
  0.0120349397486013  0.1771154533923495  0.8742079713440101
  0.0159272298327030  0.1549463514071429  0.4352846708067349
  0.1614092592095079  0.9896978102504695  0.4876499574901801
  0.3111868854679940  0.1970958533884069  0.5161057756288790
  0.1506383284449587  0.2001101136142260  0.9981901936541979
  0.1739286333728785  0.0224760126953663  0.1834945907548625
