Cl O  Li
 1.0000000000000000
    11.7780000000000005    0.0000000000000000    0.0000000000000000
     0.0000000000000000   11.7780000000000005    0.0000000000000000
     0.0000000000000000    0.0000000000000000   11.7780000000000005
 Cl  O   Li 
  27  27  80
Direct
  0.6961753569504540  0.6596717644944944  0.6874101870813382
  0.6689828455433368  0.6709123766210408  0.3290538644480512
  0.6522089304994654  0.6378366873839486  0.0062411640762434
  0.6915580769182967  0.3430086530298098  0.6807930897400789
  0.6730872564024498  0.3545951320134227  0.3303728386182923
  0.6894581796758378  0.3351802727087339  0.0042410614715184
  0.6542095575167659  0.9969161179529341  0.6631704385623503
  0.6702514963490299  0.9894194988027776  0.3500232825233874
  0.6637844784223961  0.0163179166011196  0.0060733950678148
  0.3297796237968101  0.6503680553500121  0.6825001165645379
  0.3074661103543689  0.6707889770915619  0.3327148993402715
  0.3236619342297923  0.6614893164880731  0.9986339818414318
  0.3295009424775291  0.3528700486961333  0.6367439111111849
  0.3442689674008087  0.3193124413818911  0.3460035266564465
  0.3407443480973612  0.3424457034046768  0.9642266347584387
  0.3209549785080775  0.0061986772662327  0.6727167767685670
  0.3583940435289258  0.0010978380745079  0.3042996475823264
  0.3340546401733852  0.0272398541492156  0.9980848905223584
  0.0134402539126631  0.6873111943418734  0.6545778961287694
  0.9988350795740167  0.6568440205522413  0.3126504718758960
  0.9595164889648216  0.6610789968583917  0.0059968561351654
  0.0094414391240106  0.3304476902290844  0.6695594411040411
  0.9945281686807933  0.3449988752967572  0.3328741689429521
  0.9779317356645196  0.3408267525895295  0.0025280798125843
  0.9841897501927070  0.9685515460209198  0.6795590134744695
  0.9964472852836215  0.9740786825042440  0.3414472986224696
  0.0186486082781669  0.9969309197983566  0.0169586699142929
  0.8271933498999762  0.8475184391164597  0.8380571261832805
  0.8319213170428933  0.8268233501788367  0.4949785802697525
  0.8299193135216552  0.8311352892492716  0.1634973027015851
  0.8471588107797680  0.4990330262208310  0.8359099419820186
  0.8295624751184963  0.5066835136506566  0.4972381114835812
  0.8473443958989058  0.4883711125438816  0.1731513928263414
  0.8395739501994456  0.1568985798242599  0.8432754526113185
  0.8394183242836591  0.1547323067522142  0.4862497639463338
  0.8400141075762483  0.1546944630152784  0.1633278510183062
  0.5068446086565365  0.8544603913870299  0.8332502934618118
  0.4879824966536770  0.8042747582036136  0.5055754743783478
  0.4983346969446311  0.8440439002651006  0.1628050021917130
  0.5039799420204236  0.4908121398504446  0.8225259512827443
  0.5029255804895114  0.4902701211822476  0.5022422700930683
  0.4764573125807042  0.5067460231235947  0.1722608555067273
  0.4886331376767270  0.1710208624590915  0.8254230062468042
  0.4982996365796281  0.1747581111355127  0.4965457300028893
  0.5460937965982406  0.1753695420390415  0.1805512958113803
  0.1771324220462568  0.8258525100486186  0.8557811528274841
  0.1794438555556209  0.8458062301595295  0.4928966585493044
  0.1629918400061350  0.8300058272829317  0.1695648106029898
  0.1605618550951315  0.5075896985812102  0.8449696860462385
  0.1339056437920579  0.5038420856398459  0.4952227072916549
  0.1644198717493859  0.5028490595049837  0.1326287059511045
  0.1679443189898412  0.1732414264658587  0.8395992154476681
  0.1568962453515885  0.1523650539839035  0.4983784235397834
  0.1535261183724493  0.1840641684337710  0.1646376350004922
  0.6558912809600159  0.8210979035059649  0.8340157915928448
  0.8208918768145629  0.6649126412958658  0.8726522328551973
  0.8528332458361232  0.8153234694870726  0.6643001434411497
  0.6670193031615358  0.8135405730043973  0.4549567687648671
  0.8188285783826843  0.6745281690676598  0.5081214803528697
  0.8575461524065446  0.8390139119640757  0.3310132570753340
  0.6632669939126192  0.8446452705442610  0.1271539348151916
  0.8455612565037709  0.6496242169132941  0.1612538948022626
  0.8713341874969610  0.8465916471122499  0.9908836532393730
  0.6810441779000661  0.4996057328297579  0.8214784317861108
  0.8417834819320056  0.3341450000486056  0.8251828467950755
  0.8216668485315203  0.4904216985570408  0.6806150349071890
  0.6618910162851911  0.5027311659912558  0.5078475155838461
  0.8404551556320697  0.3392979020541904  0.4936647477465730
  0.8374825548930728  0.4941980561394582  0.3407427310333875
  0.6913217230951016  0.5095678966814073  0.1726194752679230
  0.8457145342657810  0.3103712588406634  0.2057540505337643
  0.8550293364125853  0.4997337881813793  0.0144288834071258
  0.6699629163470200  0.1760651421098232  0.8516770658516506
  0.8138871721585950  0.0041982982220680  0.8201708340160612
  0.8476906271246617  0.1931823936726404  0.6583703264189306
  0.6790688137785644  0.1904833123631578  0.4827684640315155
  0.8077644016726303  0.9970758936232387  0.5034894231460865
  0.8304006850457707  0.1741607691546409  0.3363578777396613
  0.6871135076449177  0.1473352276245182  0.1609737256441666
  0.8227938813732639  0.9991858815378314  0.1689616488444400
  0.8294633668349780  0.1676438833243209  0.9935920721291062
  0.3289378713961666  0.8588391313838558  0.8397124126538436
  0.5244463693627393  0.6739653004133469  0.8646604129342178
  0.4626500469205694  0.8493599584727195  0.6637460196353824
  0.3253001561000682  0.8817592984514538  0.4783232874769877
  0.4820452708014402  0.6567068559833847  0.5008015562951555
  0.4939476169533585  0.8126991242443282  0.3352993664542309
  0.3291080315741193  0.8439975849561362  0.1674687493531222
  0.4822153904939830  0.6693618663913870  0.1522818016505502
  0.4997721719097491  0.8959295158116474  0.0211271830941911
  0.3433590982979511  0.5233740287500639  0.8681536560449665
  0.4882584856931974  0.3293938145230913  0.7935062523544838
  0.4876767913232652  0.5193432608516211  0.6699059962130764
  0.3430173609526979  0.5017889895312709  0.4603288992652446
  0.4773898939985349  0.3333172960852091  0.4916267931813134
  0.4913692631362993  0.4670325889861768  0.3256810047037413
  0.3212572830640550  0.5039694932249082  0.1577429292033153
  0.5387323345099342  0.3296003508418699  0.1907798131749858
  0.5189420539989270  0.4995616442183397  0.9814541116453085
  0.3307833785653048  0.2026175994285883  0.8291386761997307
  0.4932295272373585  0.0179994097836007  0.8284134205661722
  0.5065952995021626  0.1856671477546994  0.6697951066752672
  0.3266222678895792  0.1982841221200685  0.5088594888905574
  0.5191024976784957  0.0242930603287135  0.4966913965078320
  0.4894149514279633  0.1594571261545089  0.3314457222242493
  0.1583638819471074  0.1617742984707312  0.9991150524925304
  0.5345916892089302  0.0092239112521898  0.1856207169016811
  0.4935330463556341  0.1833888110679563  0.9941009705690542
  0.9841277809469577  0.8138651850212485  0.8034749748425425
  0.1758044398723054  0.6622270011424812  0.8037498707759948
  0.2028323173599259  0.8629275100206351  0.6594215705732779
  0.0052464737893967  0.8353413184873192  0.4980740947133092
  0.1491536333714580  0.6890035654479362  0.4938355152056748
  0.1971561414309436  0.8433071467751209  0.3270377517614509
  0.9909696773223828  0.8189809214205139  0.1957652877677883
  0.1729213928600825  0.6791504288052392  0.1343350546449470
  0.1366788640084822  0.8283861679731107  0.0053616419510540
  0.9841310640606695  0.5148948454642985  0.8371851514241212
  0.1659104939363948  0.3363649162888138  0.8425026671064976
  0.1712457422283225  0.4857770503877679  0.6586178542152673
  0.9871818750206447  0.5229923323052059  0.4985987856260545
  0.1692645482077903  0.3291647480736845  0.5112426625463247
  0.1399215429171492  0.5213710535789873  0.3503980964485566
  0.0015092845759213  0.4671486606564578  0.1594500673626515
  0.1977044960657952  0.3399482596793708  0.1745146985204603
  0.1796701487544472  0.4938945775065927  0.0096312940108127
  0.0093426730687229  0.1328786670812137  0.8217547042235007
  0.1330790936628445  0.9887337265652575  0.8679545487989108
  0.1858752463215127  0.1598523649689900  0.6636329034000267
  0.9931696633543821  0.1760815589435515  0.4825157541027073
  0.1254036267350896  0.0060555749426833  0.4940900469779301
  0.1487508237853193  0.1644018218181554  0.3454309415037493
  0.9996221658382393  0.1313911420280647  0.1737484918947536
  0.1649614956848359  0.0091951824257499  0.1650371551470738
