Cl O  Li
 1.0000000000000000
    11.7780000000000005    0.0000000000000000    0.0000000000000000
     0.0000000000000000   11.7780000000000005    0.0000000000000000
     0.0000000000000000    0.0000000000000000   11.7780000000000005
 Cl  O   Li 
  27  27  80
Direct
  0.6462565279295774  0.6754710716585410  0.6549097483984506
  0.6603855311424580  0.6823056566219660  0.3194128039897455
  0.6795296240255080  0.6509216502389676  0.9935317979001949
  0.6836971921241183  0.3257757320443284  0.6673180407183146
  0.6606920461810686  0.3323147937579399  0.3500962710819502
  0.6654398916602634  0.3124455869402663  0.0043705768348249
  0.6577944244212695  0.9856755876699397  0.7058551712700990
  0.6879941515928774  0.9963182461063737  0.3480963323166186
  0.6824675692536014  0.9805993625004320  0.9829691361034524
  0.3377130083396241  0.6642821189150705  0.6493058794116104
  0.3332029336729720  0.6653984636085916  0.3159671312356693
  0.3301190587847714  0.6684795652462118  0.9839160405002163
  0.3346929182147745  0.3560671789121418  0.7018723785824277
  0.3277484356060837  0.3509714423053840  0.3359739884471186
  0.3262424188419473  0.3325314109437920  0.0204897880815011
  0.3332810300287348  0.9833042458752257  0.6629881666112789
  0.3448901808419109  0.9925485888593003  0.3276706940248116
  0.3162664089801005  0.9891534779541401  0.9967578923402330
  0.9725028246271076  0.6745744412847320  0.6774482190211902
  0.0134045257887943  0.6657244521293805  0.3324348753669146
  0.9721413582355258  0.6549614463838258  0.9797715048043515
  0.9992089727855811  0.3237309961729047  0.6426630738350431
  0.9952894243177800  0.3509121716652406  0.3411933674958150
  0.0209222425819103  0.3595539443573011  0.0099936722795842
  0.0279100230713566  0.9900205381640842  0.6768283873951002
  0.0027419042497557  0.0152195068680547  0.3430592995542650
  0.0097539911671911  0.9977023772739582  0.9907751336860955
  0.8389373629247171  0.8256283802127410  0.8202993280716437
  0.8175743456940021  0.8340054592946529  0.5103218152618267
  0.8471950910181433  0.8430583208391839  0.1651351839316809
  0.8582335190074794  0.4857243762629612  0.8356692090990026
  0.8326917597050124  0.5063264297285557  0.5170706926124214
  0.8190131971630579  0.4978783797230296  0.1799072270318964
  0.8599688856188918  0.1597074954444110  0.8221090258956953
  0.8396414851742899  0.1647713295481408  0.5011457971002765
  0.8340470492879644  0.1655115040552599  0.1370156477292465
  0.4884418494258630  0.8197241499696003  0.8506000663410370
  0.5151414104816233  0.8395292886260535  0.4995799024148477
  0.5011373452437990  0.8540303527562280  0.1608962501767096
  0.5097528024194026  0.4955487277791950  0.8535214935218773
  0.4988913361568884  0.5040303401895566  0.5073908335242420
  0.4867573729747374  0.4982173235749973  0.1754748641096127
  0.4744458002992057  0.1582375714232308  0.8210881457987984
  0.4846573137906388  0.1892835246332800  0.5154223696323668
  0.4990346140226450  0.1548637197863776  0.1682678437388521
  0.1568344800484559  0.7997773123783782  0.8250756347940219
  0.1761320936059758  0.8438532923486487  0.4761173118249536
  0.1624629945285933  0.8355911918309493  0.1667039632025676
  0.1729890290484515  0.4971171730454497  0.8374306483144128
  0.1585365777742553  0.5174634801764910  0.4904515760661998
  0.1463681513868979  0.5066135522558081  0.1595202118211665
  0.1624372255651703  0.1692599267048229  0.8130754354062929
  0.1748476939758184  0.1838951392408139  0.4921354047507665
  0.1615405951913611  0.1733882037130920  0.1829047465407078
  0.6624549023858265  0.8465991747920149  0.8685240909103146
  0.8006669907389882  0.6494425157870274  0.8239700592195431
  0.8304908108793583  0.8276471446936922  0.6598539076304153
  0.6538391213269437  0.8256173681812391  0.5114810744898781
  0.8588419337479679  0.6784846436323912  0.5201827251032312
  0.8182998442400201  0.8244502547836604  0.3380686428289909
  0.6567080389310994  0.8304479253529289  0.1530684771367828
  0.8541441687208616  0.6858103975891360  0.1481917463550631
  0.8871297374354409  0.8329350250559968  0.9814201086519374
  0.6682993761639047  0.4421747066218334  0.8367823959305489
  0.8515058155262801  0.3199100236687400  0.8287039372323107
  0.8377066064627221  0.4874271926047869  0.6755003444930338
  0.6576892028408509  0.5064840799148389  0.5289426747068892
  0.8122187737262877  0.3266829291101304  0.5215111323739868
  0.7968412814418609  0.4819834838996458  0.3563973393132643
  0.6626506493428576  0.4958528136932097  0.1755427581420722
  0.8404945937324199  0.3192409820268751  0.1702616793286362
  0.8446726880376130  0.5242916279597365  0.0117710437689725
  0.6635654171803174  0.1606179009789502  0.8127688798822725
  0.8683830493363033  0.9983417922937887  0.8144710484575391
  0.8575888293396895  0.1678963072487770  0.6622967162950154
  0.6699135699433847  0.1497172347182673  0.5131944575236965
  0.8317074784186961  0.9899055937594360  0.5026291015494400
  0.8206411964673257  0.1278145469731317  0.3210385361110568
  0.6934394392290060  0.1589818349567532  0.1357502762417580
  0.8438955301085191  0.9834793326214999  0.1376298012765934
  0.8248531365752233  0.1343198033694482  0.9877285490233667
  0.3379867301961881  0.8003343916190706  0.7803546412726826
  0.5205640667735986  0.6664231493340221  0.8205997298133542
  0.5161481206850431  0.8197432590830892  0.6896069187888111
  0.3439171949849661  0.8572163925763970  0.4978475317237702
  0.5091491244718761  0.6712140308039768  0.4695549102725153
  0.5200789301063590  0.8672595272479147  0.3486526828199321
  0.3456428046125847  0.8617609608123129  0.1469784795901598
  0.5053370587578968  0.6847985862240644  0.2115024457985208
  0.4802339183866555  0.8456796701615930  0.0041257264525123
  0.3355819980596310  0.5181143641120005  0.8264597499888469
  0.4842102738941472  0.3129441850063089  0.8989594026823288
  0.4928107919534850  0.4741434437805090  0.6728299268537846
  0.3327649422656006  0.5381370308760292  0.4794911229763970
  0.5068024686558693  0.3416933199399801  0.5247847826212533
  0.5070301181159286  0.4784523869306089  0.3220962579309935
  0.3228720287076434  0.4944265936720532  0.1455466219756701
  0.4865684275665752  0.3248978059299087  0.1503910251575575
  0.5116067103111023  0.5311765767731194  0.0108616693472175
  0.3088341176671143  0.1252550694784542  0.8074729024379809
  0.4902490776399086  0.9951495322699339  0.8380528280942793
  0.4570939965139356  0.2022378841623344  0.6753174314109519
  0.3183596261299201  0.2062187133076237  0.4612852389831584
  0.4971232978196589  0.9999669469840335  0.5219633948883600
  0.4930913558443279  0.1923509219596375  0.3334753706449244
  0.2555303184532832  0.1604145427648515  0.0667774746099465
  0.5057567710026831  0.0049160706207818  0.1695491361137971
  0.4747856348301920  0.1266677066445777  0.0146133067913630
  0.9966706596715311  0.8062020230516309  0.8034590169554804
  0.1569420396612982  0.6452051913271010  0.8392570261273572
  0.1332512733010157  0.8204805793688079  0.6574595600015064
  0.0109520524977415  0.8345879633727838  0.4616742632872146
  0.1574113566546060  0.6696331970022823  0.4935251879029822
  0.2021417832764602  0.8199270628441899  0.3210884141360955
  0.0027622535452160  0.8521106965587953  0.1799430768623930
  0.1537857971028404  0.6786667065208647  0.1575858290558705
  0.1756228276344155  0.8390868640662943  0.9944059247119260
  0.0174432009938650  0.4559918102365821  0.8519710642630434
  0.2067874840663912  0.3211090395693465  0.8789230113643324
  0.1509170920470867  0.5017842501318259  0.6354790997838875
  0.9952754388226936  0.4809363692571119  0.4902470842606231
  0.1631028057044859  0.3465561844687974  0.4667695545544632
  0.1704734073740851  0.5164326001833405  0.3358972888379985
  0.0015220701504057  0.4974348215717921  0.1800151206493707
  0.1405942031929250  0.3419115767849345  0.1808217519568965
  0.1657767455743995  0.5351500578165056  0.0012361962395854
  0.0257109315138832  0.2058355998734179  0.8762184240390988
  0.1439775790224652  0.9863958205823281  0.8248573374636575
  0.1484139601216848  0.1878622843175455  0.6485647130119480
  0.0205471136296449  0.1666831416973986  0.4834930652629668
  0.1681074805029497  0.0019794756443681  0.4795558591468815
  0.1907571645467782  0.1904796053416662  0.3372638131222072
  0.0074902829977093  0.1631643421716290  0.1534575216835440
  0.1832889424324757  0.0092240667918398  0.1930626978347982
