Cl O  Li
 1.0000000000000000
    11.7780000000000005    0.0000000000000000    0.0000000000000000
     0.0000000000000000   11.7780000000000005    0.0000000000000000
     0.0000000000000000    0.0000000000000000   11.7780000000000005
 Cl  O   Li 
  27  27  80
Direct
  0.6751244595700400  0.6448233795549079  0.6792378363315805
  0.6811833035937188  0.6664582967987398  0.3594705060602034
  0.6517315443706423  0.6686973019097320  0.9980493485028084
  0.6760061508275834  0.3088046996683829  0.6910586853533017
  0.6558999221774511  0.3285711950010538  0.3664935910922812
  0.6418843590832055  0.3489983110103234  0.0014035250607007
  0.6528085372457076  0.9730169637421505  0.6821917328111879
  0.6651037943010358  0.9826017327237473  0.3455334036904101
  0.6318476211064578  0.9969039601958990  0.9888734962760877
  0.3576332595305645  0.6523273502861822  0.6928814194793522
  0.3220315236260478  0.6627509263548499  0.3368141216810308
  0.3409319145839999  0.6320844024067026  0.0057606097913037
  0.3586331276997055  0.3216529064525903  0.6598771465053834
  0.3199671928162160  0.3217268125684248  0.3296066053639984
  0.3422276298862337  0.3335132489917021  0.0160617155971673
  0.3320744963559255  0.0384661177203527  0.6782946072509373
  0.3177939157682518  0.9991510937413487  0.3322704846095434
  0.3535560953523371  0.9881750858328495  0.9946510460900835
  0.0185012339077450  0.6698728767579867  0.6737440066889412
  0.0009972046648307  0.7076146309462068  0.3125608712778297
  0.9809415906844227  0.6486267004203414  0.9897771628876265
  0.0125704869862666  0.3115136391751844  0.6357654938234267
  0.9812180022904091  0.3864780031400405  0.3008934619597586
  0.9772250199311253  0.3428239216266929  0.9582251268713732
  0.0033605469537218  0.9931341253507188  0.6609628032581746
  0.9949650882864307  0.0405690792022759  0.3115968529391853
  0.0073808805284849  0.0039440884785359  0.9805621129953928
  0.8380990035698477  0.8311224184113248  0.8425814858137571
  0.8327590589703676  0.8457089877272802  0.5098502819419909
  0.8251666681037974  0.8687183036675529  0.1650208635050456
  0.8192499683543970  0.5158679562998854  0.8330143785922441
  0.8258137868961830  0.5029722196444154  0.5208270101665874
  0.8299176309595570  0.5263618555256084  0.1526328240115010
  0.8281052610984497  0.1622981427122800  0.8319024063229956
  0.8354096387587494  0.1693400737026821  0.4974387507893321
  0.8263893274838053  0.1811591818517762  0.1531878081322293
  0.4997256315134441  0.8034152564731261  0.8605824326619094
  0.4813188184307030  0.8110332341187748  0.5010787130256817
  0.4976365843608477  0.8439279535734620  0.1856120263953679
  0.5041137236399649  0.4887832575394224  0.8312191745449488
  0.4878961186139970  0.4751130349919142  0.5053688709455723
  0.5212459345617527  0.5180908887031337  0.1923695068955735
  0.5091903106478241  0.1603058455680734  0.8295452647858159
  0.4905424474343356  0.1596046888747782  0.5050696432807498
  0.5051620528447970  0.1662158854675396  0.1805202168733737
  0.2028072747162959  0.8188793875348115  0.8271343586242440
  0.1683237255914523  0.8353723338337408  0.4957542743382065
  0.1841526504393484  0.8539832338679596  0.1441704725349156
  0.1773215269784729  0.4857780255600185  0.8402269353428132
  0.1579440964352681  0.5028404801204899  0.4931570138347081
  0.1725086012028092  0.4913388180706888  0.1497247367732339
  0.1805568577852368  0.1875049864610674  0.8352763794160788
  0.1530955738629199  0.1540547363326179  0.5022689840777427
  0.1919488246168217  0.1669079633076571  0.1318474121243151
  0.6501892931646150  0.8101270896736310  0.8585063408404918
  0.8392928373379827  0.6752298252296390  0.8178381797660096
  0.8459649948367524  0.8358899802851576  0.6688120740507764
  0.6780095713381694  0.8127896531433531  0.4867035585204022
  0.8465513855142368  0.6641237056348933  0.4736259614035085
  0.8567476360061250  0.8347964693628390  0.3375168876693708
  0.6566004817109496  0.8433792952980357  0.1869728017513659
  0.8375271876399393  0.6884689996175793  0.1698448417976212
  0.8440463102891583  0.8510995390891778  0.0067001546996430
  0.6692986495659415  0.4878889753193894  0.8260287020789452
  0.8127189429946576  0.3435520517243566  0.8354124103934570
  0.7856319365658283  0.4813941034307210  0.6895608061565621
  0.6602705246068803  0.4838917698257817  0.5274619615736276
  0.8430988707258817  0.3440377147019253  0.5039293312245474
  0.8337851211997361  0.5212132854588865  0.3151472614487609
  0.6777994520606118  0.4901745386518057  0.1773581849012953
  0.9113429400395570  0.3099984322229931  0.1372586414093365
  0.8188877858771271  0.5204504188794995  0.9959943474054570
  0.6621603835426013  0.1624699425493351  0.8305241210272013
  0.8150049921519932  0.0004132238261676  0.8305574810049869
  0.8381428897542161  0.1731934952629090  0.6564013526063164
  0.6705960854980978  0.1941485815031285  0.5083216338337015
  0.8495070633518815  0.0064272648923475  0.5242239789725130
  0.8203553819872360  0.1670351381016124  0.3404119993337540
  0.6751640947863654  0.1765363755611627  0.0962533178409234
  0.8328794625795116  0.0193257963062719  0.1414451566797957
  0.8482244045943511  0.1533668892178385  0.9779051554897774
  0.3621375852690060  0.8177806944800216  0.8360831726652442
  0.5140039044327517  0.6485194140840161  0.8430090927134803
  0.5477419349763647  0.8031065957077891  0.6874862527807222
  0.3237287732240076  0.8468269518371988  0.5304047650509131
  0.4629750006458192  0.6507340469782280  0.5335331536473362
  0.4882995152385798  0.8201946775327488  0.3488387540136549
  0.3441908888701652  0.8426749301360033  0.1787523607204889
  0.5068264890180053  0.6757381195513608  0.1613903748546205
  0.5067149517136369  0.8328612667679919  0.0167319692709922
  0.3506663682474752  0.4678234749916505  0.8529594348254291
  0.4859929804638177  0.3237513867057014  0.8151334304991362
  0.4809734373985557  0.4993943215414945  0.6724147087391669
  0.3284435826086960  0.4756082930116373  0.5059963947995497
  0.4920752655398483  0.3122520525669714  0.4929811452139546
  0.5247595013482883  0.5011202145669827  0.3448261235788624
  0.3578246340633227  0.5157897789733026  0.1881017981354915
  0.4981728945862439  0.3279687518585304  0.1896595754962286
  0.5067593642083347  0.4979578182262149  0.0200553431926720
  0.3442717787192134  0.1999184001852881  0.8638556780550766
  0.5008252962180725  0.9735277884019933  0.8369801674077429
  0.4874034111750998  0.1666419640430379  0.6629123376881385
  0.3151214131303909  0.1414335818486731  0.4934085496866282
  0.5217077921182803  0.9994727230035303  0.5326474948196191
  0.5220505820841917  0.1430386259255081  0.3518447957012574
  0.3645692199604643  0.1570521040211420  0.1349751327114743
  0.5235264372179272  0.0075903221579182  0.1705813118897314
  0.5142930512305005  0.1672800950744183  0.9863022988878188
  0.9963223243319821  0.8450847836769172  0.8236312370734712
  0.2114816786487634  0.6516390578318937  0.8468450853047308
  0.1861926697605148  0.7794205256550590  0.6564620402358073
  0.0089595787248053  0.8430456145493594  0.5030662632555736
  0.1579076393236225  0.6499120717003373  0.4406170730928075
  0.1685029646225828  0.8700718928632876  0.3332266892640705
  0.9920285398049800  0.8547812012977594  0.1385436989274053
  0.1952241145231906  0.6758578753939457  0.1322842699402084
  0.1736397230709564  0.8254436109306971  0.9878231725322317
  0.0144086131591062  0.5241562913632217  0.8463831467773832
  0.1605974798382876  0.3304608717524301  0.8287116701952740
  0.1920624671625066  0.5039449625889004  0.6791373515441242
  0.9937845147552181  0.5055068087333359  0.5542317648156235
  0.1639334674955001  0.3099493436634480  0.4683309151236453
  0.1450318214898401  0.4551606913849411  0.3292920539715159
  0.9924258794326859  0.5322417135519688  0.1313623159424854
  0.1659201978958407  0.3392902740768300  0.1302543922142305
  0.1899983792651344  0.4999080409081475  0.9933431424654134
  0.9858040377074500  0.1674777347243638  0.8241228109208903
  0.1986762851855612  0.9829110868017295  0.8189250510810988
  0.1653259226847714  0.1581047145580745  0.6763326438001238
  0.0045690052854647  0.1454152814302760  0.4943482565366072
  0.1760876126545032  0.0018955700679138  0.4959859723392591
  0.1919477719961634  0.1644010864818364  0.2763788782354334
  0.1818225733987097  0.1467076364434854  0.9843977956202232
  0.1905659442269998  0.0073571533978329  0.1274292190955084
