Cl O  Li
 1.0000000000000000
    11.7780000000000005    0.0000000000000000    0.0000000000000000
     0.0000000000000000   11.7780000000000005    0.0000000000000000
     0.0000000000000000    0.0000000000000000   11.7780000000000005
 Cl  O   Li 
  27  27  80
Direct
  0.6731618892890868  0.6519351900563376  0.6727337718585039
  0.6580781591391416  0.6839034818755041  0.3398361324664991
  0.6668758411448582  0.6474845884568786  0.0023361724013074
  0.6683234779478695  0.3420883236643779  0.6733980564647016
  0.6787502523639219  0.3397900479132424  0.3480508245691654
  0.6691239149876754  0.3222588330338496  0.0433172553305224
  0.6446833993208245  0.0012229765759318  0.6794699772757892
  0.6689201924048874  0.9846716420922789  0.3535271240293033
  0.6542282395668738  0.0113854755202100  0.9767623613058636
  0.3432145026897952  0.6824651972021873  0.6786232654124287
  0.3175883110649111  0.6783361712138346  0.3288182508227047
  0.3273749099363815  0.6544290508228646  0.9991680864371288
  0.3581452789610096  0.3306052849031464  0.6584077261554743
  0.3473282251931930  0.3297453140680324  0.3368261232087230
  0.3379115617549949  0.3469613095456787  0.9872715513648511
  0.3174962067573111  0.0076922888866567  0.6323173490629914
  0.3362154255058083  0.9967094638123581  0.3259292524552214
  0.3254792211016300  0.9827494631477400  0.0029116003888833
  0.0083506906295127  0.6787154385340965  0.6669118079683491
  0.0017226087741785  0.6680192337149332  0.3332861396922054
  0.0045048423712816  0.6720402041441721  0.9927961587752238
  0.9920055806004650  0.3254699130800631  0.6449213073690666
  0.0318888105471460  0.3160581888618768  0.3441007845781309
  0.0013502265039433  0.3435981460570480  0.9868535951747208
  0.9900516421170018  0.0060441866786033  0.6826209567309554
  0.0276115573516721  0.0021862886339483  0.3460918975240970
  0.9985537121529244  0.0084285154337227  0.9890473464535902
  0.8336358519443186  0.8313838951248653  0.8462690564958359
  0.8433436864507623  0.8374813217442114  0.4916773911614955
  0.8445247268293583  0.8243553850478563  0.1666768358312245
  0.8207907220512664  0.5024333402889698  0.8411893521114118
  0.8635212908786086  0.5090306402647714  0.4683034636193568
  0.8342028905958547  0.4851340460803843  0.1526619508675954
  0.8336323701990642  0.1724264401370753  0.8293482603847235
  0.8248412873151670  0.1698070138716379  0.4950406761063559
  0.8496282366348236  0.1311539128630975  0.1809878614471686
  0.4965305638978689  0.8293677217101503  0.8439821976303016
  0.4904810315184749  0.8310770157175653  0.5041947511757219
  0.4848402803231849  0.8244732785615843  0.1802033351734667
  0.5025829302559582  0.4991348320000039  0.8311829781921144
  0.4806069234334320  0.4973597087160359  0.5123446261370840
  0.4937216861566451  0.5151247470805026  0.1795664591897944
  0.4904135828255248  0.1792202158072866  0.8228041987229853
  0.4905377920632024  0.1744815200307371  0.4937779766559231
  0.4989249924975979  0.1752250953122906  0.1739408495378198
  0.1562783449372462  0.8330587765338365  0.8375489850209628
  0.1597141999794135  0.8256580435978942  0.5025110439473851
  0.1552721205587456  0.8444728281565407  0.1871941533338272
  0.1695918100524156  0.5251734282531810  0.8044021224332064
  0.1931180841921360  0.5056682459989293  0.4820932800678101
  0.1554217141484519  0.4925606087078647  0.1570216019936375
  0.1607510313278242  0.1452578859712864  0.8338607641759717
  0.1734605553403026  0.1640279847587182  0.4930703321756860
  0.1506926134140567  0.1604578497331523  0.1618106211347351
  0.6716934429853691  0.8379192929088777  0.8404483881387990
  0.8401101977301504  0.6487960323408721  0.8558098482008917
  0.8667490306710097  0.8383069002235863  0.6923206131845926
  0.6589403769145067  0.8143577559771047  0.5250624699013037
  0.8352768875505849  0.6559984677389578  0.4533690841466583
  0.8351128406695324  0.8732507482166748  0.3207173834500677
  0.6697477141839392  0.8453198639031805  0.1586513725345897
  0.8547621914685590  0.6540612813590239  0.1751444200470438
  0.8282704015365803  0.8462473846447693  0.0098498672219802
  0.6540947186849115  0.5193651079461741  0.8434341061506145
  0.8560399110060773  0.1928826651560875  0.0118074200505365
  0.8329164262097907  0.4908037443437770  0.6694101626153789
  0.6500328175062292  0.4807130393155870  0.5035137865806313
  0.8119045794248437  0.3221998255488707  0.5187328189705761
  0.8632947345246176  0.4569611804717141  0.3279883201617618
  0.6813869051712865  0.4910898952211908  0.1755313188670785
  0.8262414347323259  0.3298281067313475  0.1683523650067547
  0.8217464206381693  0.4784182857951157  0.9923586424388345
  0.4778989353337640  0.1594407347793794  0.6560658071324298
  0.8264540641052993  0.0163374117463894  0.8528010535054137
  0.8396256683440598  0.1893808391384327  0.6521973857278224
  0.6766750512215229  0.1856246028047525  0.5029825370314768
  0.8163502013188808  0.9841098045507501  0.5381565445800405
  0.8563094628654183  0.1221672652065138  0.3299012557811452
  0.6397493614413432  0.1039950144675779  0.1754751858462049
  0.8814832907624045  0.9987743346912326  0.1440351678985628
  0.6700771844499823  0.1575010787894395  0.8309946301866614
  0.1598283081073126  0.8705422742920875  0.6540079742308925
  0.4888582548320888  0.6401864860351190  0.8299175662192162
  0.5135284847149055  0.8271611858979252  0.6891558686900485
  0.3306905840391595  0.8574547177643502  0.4652169774222154
  0.4698082095563156  0.6780836232266659  0.5193647557342365
  0.4939491736750646  0.8396417041891117  0.3505315680628737
  0.3017292853147289  0.8203075727918313  0.1660662348785993
  0.5064237810964006  0.6656622946048032  0.1864945249647570
  0.4659843221026356  0.8060625383940795  0.0065846683040375
  0.3247216176255343  0.4785072322407408  0.8035699853174222
  0.4714274640120374  0.3531355774730794  0.8075413611194920
  0.5210500261140911  0.4910684379539257  0.6718922826130248
  0.3459681178464589  0.5321876064950734  0.5087085909854978
  0.4638443038189321  0.3529117336415541  0.5098498746915384
  0.4659224199108465  0.5213706741834866  0.3469766251873855
  0.3296184089278763  0.5187535353437105  0.1669735331579261
  0.5050731473355911  0.3483128744709167  0.1530811874088148
  0.5130555341560560  0.4575015392381038  0.9843874087162220
  0.3176570350482741  0.1862817822215068  0.8182342056496310
  0.3231875849577235  0.8455108135820470  0.8250032042489628
  0.4780283671893231  0.0196710120295848  0.8485492757541410
  0.3209451993150019  0.1858216452949014  0.4934858339378391
  0.5103818776840120  0.0076263900258057  0.5166893988749752
  0.4979703870167630  0.1723378783028445  0.3385744451513146
  0.1568378229384772  0.1910646070948845  0.9757043206633237
  0.4594101392959064  0.9633409094456484  0.1350696232619072
  0.4835420346828301  0.1716618326850610  0.0092358692904278
  0.9857529354497701  0.8171165127808301  0.8434273046017456
  0.1577968514503472  0.6721180575874753  0.7991828243553298
  0.1734481060767478  0.9923024685519928  0.4661590729113806
  0.9949946158855570  0.8637663122022471  0.5103663875514769
  0.1340514399080064  0.6660133840797512  0.4924918766385485
  0.1570031653526479  0.8476139291716831  0.3389007170699730
  0.9994707466989020  0.8110300981929862  0.1862725029766787
  0.1365057059436179  0.6534842428112339  0.1849267477077662
  0.1610285992983320  0.8199134068407133  0.9934920890551303
  0.0362817153767727  0.4653575306087547  0.7922763373038620
  0.9976666839378456  0.1573526592766213  0.8138727934082566
  0.1782371454605504  0.5108932930050167  0.6443260099013965
  0.0180223881120832  0.5097406733841946  0.5018955442601578
  0.1859313976185148  0.3183053517829707  0.4941347340882619
  0.1713723583813147  0.4636138644883055  0.3253470520176650
  0.0070985717879324  0.4759324006543458  0.1418950686440395
  0.1647685503758663  0.3299541175697673  0.1625753702856842
  0.1916750424831521  0.4815455003146508  0.9833533721262657
  0.8156544294280194  0.3415540377094783  0.8040951620550867
  0.1449013071005745  0.9871143874984259  0.8539477622563856
  0.1874599040278695  0.1775608403103202  0.6754713143074239
  0.1612993555986184  0.1553367490170707  0.3223810504004873
  0.9975100338677048  0.1646036974093328  0.5098806436030884
  0.3307060899511642  0.1421139813415060  0.1702726284853361
  0.9986021363405666  0.1558678366245854  0.1526936711862787
  0.1487146885903767  0.9970864743873087  0.1338118731528389
