Cl O  Li
 1.0000000000000000
    11.7780000000000005    0.0000000000000000    0.0000000000000000
     0.0000000000000000   11.7780000000000005    0.0000000000000000
     0.0000000000000000    0.0000000000000000   11.7780000000000005
 Cl  O   Li 
  27  27  80
Direct
  0.6756237740995643  0.6687591386480584  0.6764160988753547
  0.6678485106363221  0.6649684087451143  0.3173524354024052
  0.7071837705595462  0.6605483331447456  0.9889240879523893
  0.6548080386403380  0.3373995399794476  0.6370052931771937
  0.6775925390992468  0.3346155810080382  0.3436765145237323
  0.6734566305912051  0.3565278030672134  0.9830748938285467
  0.6695452541666577  0.9970377572200450  0.6812226077135438
  0.6405664050170207  0.0084850778865082  0.3411940706428067
  0.6535591447146926  0.0268689408024930  0.9945161680939241
  0.3328525529328458  0.6312819970991669  0.6572987263628611
  0.3397919951079998  0.6453439159877870  0.3346190578851739
  0.3448787844391623  0.6358532857056393  0.0118726340271817
  0.3351018818233711  0.3046770657013248  0.6601054178919485
  0.3314459885782124  0.3203529354569654  0.3426974558552974
  0.3316622616380800  0.3327222403270630  0.0026378816571697
  0.3416151745735595  0.9990926308516134  0.6858829642218712
  0.3175792296081795  0.9922558794838552  0.3404893613547899
  0.3321339166638116  0.0028292477737714  0.0207828287826122
  0.9927217427581856  0.6759137202916018  0.6517116993065537
  0.0078261476683319  0.6610879226883465  0.3336409303811675
  0.0228631930799469  0.6784781066422340  0.9992297521623776
  0.9700156188899864  0.3331006776964214  0.6570931819366261
  0.9898206145823356  0.3652813964615118  0.3321003795623574
  0.0055113538699432  0.3467662039363771  0.9945845523793944
  0.9947281794318118  0.9786628847535497  0.6783351073062283
  0.9773507426887926  0.0368087339348157  0.3483008795026282
  0.9922727367889740  0.9845877549647424  0.0073355309213069
  0.8384234616138670  0.8521880453380213  0.8322985302191473
  0.8152373054030027  0.8507929181116942  0.5085410389154909
  0.8299824965550793  0.8351830395742462  0.1719321424802425
  0.8676493932203314  0.5100066156232219  0.8240637978385634
  0.8320286291731458  0.5164876819871028  0.4758417425345555
  0.8366536824040104  0.5051206339253321  0.1602380735197298
  0.8398958350023482  0.1700447580226461  0.8361548464861845
  0.8377934276644735  0.1697167857167705  0.4968162617715433
  0.8207242930113630  0.1854513390741103  0.1504488127325562
  0.5078671339637577  0.8257504248845341  0.8427850611002624
  0.5103886867506796  0.8080097182514379  0.4971599019310633
  0.4984472721781748  0.8497402974534092  0.1717899577205541
  0.4823833092829065  0.4928056604753660  0.8281576015202738
  0.4922058794411034  0.4814164668943616  0.4859418401778501
  0.4958702948650532  0.4985643861552038  0.1682180919437135
  0.5037898483293005  0.1643818309440648  0.8443199439616818
  0.4940999488594576  0.1524927235211948  0.5103263645227621
  0.4821968739701603  0.1762667177629492  0.1767248660363491
  0.1785522306811607  0.8149906984571841  0.8406479982514842
  0.1593052137647059  0.8083428322043750  0.4900704208266937
  0.1741754339840115  0.8424293611567005  0.1668048070110311
  0.1663704441085251  0.5064104586004208  0.8190827968835586
  0.1582166724264569  0.4746275089879323  0.5006361816550496
  0.1749779965078389  0.4995291129885221  0.1641392881063838
  0.1790724884415181  0.1951704082818108  0.8428466798941818
  0.1682520845060295  0.1684150988165712  0.4956078127704221
  0.1750834812434221  0.1653572965323681  0.1763046274812338
  0.6854424576584075  0.8228198480010487  0.7974357340167465
  0.8598268832836961  0.6714576531618017  0.8179224850348490
  0.8295603956711070  0.8320523028240471  0.6556459499877139
  0.6632699751414715  0.8069154785917406  0.5369763309513534
  0.8404549385135375  0.6585075446007904  0.5109775723415513
  0.8013222270962133  0.8340202176301209  0.3415716780612615
  0.6703256914139561  0.8272738098895321  0.1516874739708406
  0.8029575947450889  0.6593654709227026  0.1806050686952473
  0.8049626751574823  0.8248586932453269  0.0038305720287663
  0.6362015920012121  0.4896534259724918  0.8263819924113865
  0.8619336630458436  0.3407976423768513  0.8221530484313164
  0.8725056991127396  0.5049163445468051  0.6434035263923495
  0.6676520349419122  0.5247130622379917  0.4876848585317404
  0.8378644390734979  0.3227724245254435  0.4804835972105428
  0.8423984001320109  0.5028529651441068  0.3307689561285616
  0.6601008987080647  0.5060392478767355  0.1474347245697293
  0.8109527344696832  0.3364273031025866  0.1711092765233332
  0.8469017542206140  0.5012566254304075  0.9920182847223695
  0.6757796024424004  0.1812567064789594  0.8199245695269073
  0.7989660572088720  0.0243035549683032  0.8598507949789383
  0.8473445836344725  0.1522058135423448  0.6670914992593466
  0.6712870984436597  0.1681557796445912  0.4909497234450512
  0.8022930672264316  0.0122861720543954  0.5236500319612351
  0.8412839987381667  0.1756849626649020  0.3080913776372884
  0.6687229550054874  0.1438838351033532  0.1644658636656167
  0.8642722622652735  0.9989525807286539  0.1673764913633572
  0.8089083022388340  0.1961518151040219  0.0056111870953333
  0.3319329875743090  0.8418160071961996  0.8342907362711814
  0.5081352688337509  0.6410490617603442  0.8538170114240089
  0.5013851769208583  0.8193609365179242  0.6657238211409547
  0.3401478618613201  0.8065138633251948  0.5123234693093984
  0.5004609759828841  0.6376083687116898  0.4794730408931793
  0.5202663980372064  0.8189130059424138  0.3236300625813675
  0.3249431005783771  0.8344232094006043  0.1520335331336043
  0.5015478068125634  0.6953248954239868  0.1462589877798348
  0.5080138530893586  0.8511529953476478  0.0015069096324831
  0.3175552217600885  0.4658648468618087  0.7935622519358975
  0.4816789441208741  0.3171537581212725  0.7959351827829514
  0.4930409719918128  0.4809355002243452  0.6578457247364800
  0.3338598906601196  0.4681093175031420  0.4976075491087041
  0.5099678409144152  0.3181065012732502  0.5120129462152043
  0.4891883398970796  0.5034674526960856  0.3271294797171311
  0.3359309622907054  0.4956858330234836  0.1922263246459937
  0.4653395184964147  0.3352143197355528  0.1621151188232066
  0.5066268634304283  0.4925301977461749  0.9849725828955828
  0.3406847793678653  0.1730616902855209  0.8528170217986379
  0.5145947159887269  0.9707321497251463  0.8305898030074711
  0.5043447008724465  0.1447785525415430  0.6846898591911149
  0.3211767226495083  0.1310850812473802  0.5005018915502985
  0.5026822079989151  0.9845131479452484  0.4916813757733791
  0.5310616706544785  0.1769493422598470  0.3287913653095135
  0.3309595563778549  0.1641433921222583  0.2002686096304560
  0.4685817115801624  0.0189867705536436  0.1620002313511663
  0.5066369442975019  0.1749892613805954  0.0040108526103258
  0.0054597760902718  0.8445083679276332  0.8453977465449456
  0.1887484002022289  0.6600237232028203  0.8421174566904499
  0.1565127629785630  0.8315968419622890  0.6838286535509980
  0.9804587367599616  0.8397933561158950  0.5039383336309098
  0.1752569004968745  0.6320482644529886  0.4761592291192581
  0.1746831210245844  0.8209707173877213  0.3326840779600815
  0.9956033512731869  0.8372300628713312  0.1750768264541641
  0.1823763812900053  0.6706436939950778  0.1715769842215961
  0.1815294467568901  0.8427766450031146  0.9944309380824141
  0.0202063709474211  0.5149843777454319  0.8326825748177816
  0.1855782306627538  0.3500160892480124  0.8663495939523703
  0.1531586277363476  0.4974191348789897  0.6694667782601766
  0.9717231315393645  0.4682695992410709  0.4840884990818896
  0.1721419530565495  0.3139358967688952  0.5082927823817753
  0.1496383909785254  0.4659343603106655  0.3322110869158220
  0.9984135495346173  0.5115350613044616  0.1329439538550305
  0.1602852035975693  0.3427694437822787  0.1847968268262931
  0.1661050723677600  0.5100128503763517  0.0099177839894105
  0.0359502232973552  0.1245293699089335  0.8622730370552921
  0.1975095441254800  0.1749219341438751  0.0086049601956444
  0.1859847649066064  0.1635102610390048  0.6934638572320201
  0.9984080964978207  0.1300548287780837  0.5034970021772187
  0.1576517997443522  0.9876056285133981  0.5285390500648697
  0.1442844789126181  0.1835889494890296  0.3394489672903049
  0.9973476822399772  0.1880513323427794  0.1448338001366318
  0.1583003456474381  0.0013333888938752  0.2016383727474594
