Cl O  Li
 1.0000000000000000
    11.7780000000000005    0.0000000000000000    0.0000000000000000
     0.0000000000000000   11.7780000000000005    0.0000000000000000
     0.0000000000000000    0.0000000000000000   11.7780000000000005
 Cl  O   Li 
  27  27  80
Direct
  0.7079019563830009  0.6571633814526920  0.6683304555631708
  0.6582760339919226  0.6733614725110717  0.3426135918749367
  0.6895483816143230  0.6784210961321686  0.0270722425576902
  0.6914617220878058  0.3357770396380528  0.6801502114788236
  0.6873929383894347  0.3346371121932449  0.3249513054808826
  0.6503939700172744  0.3281935150762580  0.0116110770522824
  0.6691448685990449  0.9787086287442350  0.6771091903970382
  0.6626510088456248  0.0318043278903289  0.3336076934059294
  0.6479058176935482  0.9953806638354689  0.9969404922871153
  0.3287681974882851  0.6581815490271232  0.6737984555142721
  0.3412949906030260  0.6778119526543011  0.3392039916211118
  0.3193028705873461  0.6735217947344107  0.9672049157909570
  0.3286149804543897  0.3518865486194967  0.6395566650148496
  0.3379490334136174  0.3333231986992456  0.3274603280334298
  0.3259245630226330  0.3474110889783382  0.0151112532894823
  0.3327488849346396  0.9968961756934038  0.6789741912910596
  0.3467799539408898  0.0098812291727412  0.3520126036744036
  0.3140149092542215  0.9952682181397153  0.9729781529599181
  0.9974985293296094  0.6989208834522699  0.6682032099197481
  0.0097186925125743  0.6592740882996033  0.3229585933612242
  0.0048725225220941  0.6496080752216213  0.9909384467632359
  0.0132132147092432  0.3425911389840510  0.6593317634971316
  0.9913647034010293  0.3453194102740961  0.3151584516135774
  0.9991365849092270  0.3214823903704269  0.9983278684551936
  0.9719567070059089  0.9908476753756710  0.6546503950610487
  0.9938085390666143  0.9892428590292668  0.3335072288611781
  0.0135204989706425  0.9653049545447183  0.0094641920635035
  0.8412232452744905  0.8241731872314455  0.8542651662155911
  0.8120142365693785  0.8543694731432090  0.4833921313346368
  0.8193571563399353  0.8403113193977129  0.1710283072497828
  0.8339368431362019  0.4994618191843335  0.8384807955613276
  0.8440854018151874  0.5112213328100045  0.4940121830977144
  0.8425470372085138  0.4994322243496716  0.1684344880061287
  0.8485937760946223  0.1417052170497519  0.8473209467620648
  0.8198316453443623  0.1744726604969588  0.5065288143745621
  0.8278137487669578  0.1601789626364665  0.1515045017069614
  0.4958227801304256  0.7998523059509497  0.8396701759343697
  0.4942025135394553  0.8476588545050021  0.5025635113839825
  0.4958499053550814  0.8307595966319750  0.1538685055211249
  0.5032783303114188  0.4854851220836247  0.8318735766600921
  0.4991527860683203  0.4996221414076722  0.4897983401755497
  0.5125802176124539  0.5076510459641513  0.1711881841336123
  0.4979132442723697  0.1821989366141810  0.8161468572295745
  0.4980285062344519  0.1716283175366329  0.5059402779703508
  0.4914316515981597  0.1648774159155416  0.1621199684973640
  0.1419510263555322  0.8204363029237137  0.8367825945562344
  0.1660977394024918  0.8358763856518984  0.5126059173181210
  0.1810316937783860  0.8198072406241587  0.1850107532787023
  0.1729964937406621  0.4839363527265980  0.8411176103103315
  0.1682912085486606  0.5135574219340185  0.5067546419911740
  0.1745099193348164  0.5126783217427108  0.1550851730604627
  0.1592286001416881  0.1567556378286739  0.8122698934034709
  0.1539461347029620  0.1715389662369085  0.4939044919072899
  0.1691190845750493  0.1701329686780142  0.1871052254762298
  0.6656004924155494  0.7957576925610408  0.8789909825662474
  0.8623165487042248  0.6792611683883000  0.8334172043700572
  0.8170687590288236  0.8471388598998093  0.6711912355999299
  0.6512522607078759  0.8072408122930922  0.5282703297027501
  0.8204802216115056  0.6765543948509297  0.5005903334746171
  0.7917724222813770  0.8548501159299461  0.3191383495944382
  0.6731931261945794  0.8268685438832142  0.1236811466422519
  0.8115539174584285  0.6488777993972311  0.1991695537532943
  0.8440970616132486  0.7842360307187322  0.0249669329219909
  0.6728996474579676  0.5080610012251435  0.8130164443626547
  0.8394324136514684  0.3447543149222368  0.8388721275337498
  0.8285360084801811  0.5183424330195328  0.6734144109156379
  0.6949309168650538  0.4822092856242217  0.4913194579975915
  0.8242315187251739  0.3340781301382857  0.4905564699619745
  0.8677597310990366  0.5099612244258075  0.3418390654974886
  0.6748631898397685  0.4643208072448661  0.1735728355068422
  0.8370327624338579  0.3238320016213589  0.1295618548622209
  0.8114626633444372  0.5318061799763771  0.9885677217384388
  0.6612015097137564  0.1727816254094239  0.7819721510544128
  0.8055819146390583  0.9900352439005875  0.8472724452409640
  0.8262512548559633  0.1517259430468709  0.6596667802643359
  0.6474778869105452  0.1983884852510646  0.4980282547923513
  0.8038260624102189  0.0084649476871391  0.4741887855213812
  0.8312969514960427  0.1523000666451455  0.3233610588213784
  0.6474990607799408  0.1581876371420983  0.1295811967668169
  0.8452852274239928  0.9919254830196113  0.1369847434387499
  0.8395278782480928  0.1437940415325937  0.0009833682488319
  0.3092763146911967  0.7917631591044889  0.8276898143975085
  0.4868375697058944  0.6494562144489588  0.8450439663365545
  0.4905918627398979  0.8436780051170080  0.6855343661459518
  0.3190150395654202  0.8696432418073847  0.4902606835569965
  0.5128813480915434  0.6666255100062463  0.4772492395999350
  0.5165613099129078  0.8539029192791291  0.3431656509247974
  0.3378954509735697  0.8530953163217651  0.1576882229775818
  0.5354026124150610  0.6557267566811826  0.1759262523863079
  0.4560930303728043  0.8152136850422226  0.0094332055428752
  0.3262944579704953  0.4615490546245518  0.8412247347050171
  0.5288296036852200  0.3345671938902888  0.8642225527888685
  0.4825282217016954  0.4797387039684068  0.6699052975241949
  0.3526216747110924  0.5200812813761997  0.5209261953698954
  0.4596185403552704  0.3423489552618256  0.4848729256883844
  0.4805335055542452  0.5216090388054707  0.3248429057957842
  0.3247610325838336  0.4945771735049717  0.1640158091524027
  0.4809558088652672  0.3360903764682373  0.1693667354193274
  0.5056049458495082  0.4727846465602666  0.9778772595216406
  0.3103489351419892  0.1571802589294146  0.8208989536768122
  0.4695323241420487  0.9636765680987182  0.8605293117530455
  0.4840833067826718  0.1845280420049814  0.6514307928360441
  0.3014834400746331  0.1642117851694636  0.5524458683615828
  0.5167335348467673  0.9942754475690033  0.4980636795260436
  0.4832872421671388  0.1639991355537851  0.3388756144611367
  0.3280324763762587  0.1499625301677263  0.1608635341641185
  0.4728103468135880  0.9942416726157658  0.1569039801017495
  0.4945674895100107  0.1632660459934045  0.9904028557864505
  0.9916347474111347  0.8299407387306489  0.8558572954466572
  0.1171152617528477  0.6640813258751713  0.8394038629078235
  0.1171833784550618  0.8403662985844035  0.6712239882965666
  0.9763986801523756  0.8517646418680530  0.5036724877328955
  0.1507284858989868  0.6640203953332204  0.5021181313892980
  0.1652822721542478  0.8286345174645372  0.3365642619225925
  0.0085488583689314  0.7978053636246848  0.1930360141482872
  0.1623287805287398  0.6644686902774201  0.1732890125404996
  0.1759153703406766  0.8513982489081500  0.0161631021946405
  0.0091697704493991  0.4709417911854790  0.8683298785974966
  0.1378134680670357  0.3095942950828053  0.8417490207636628
  0.2023427682281555  0.5228104433452633  0.6685007776827632
  0.0041968931449314  0.4892305892982624  0.5132774892981069
  0.1455164650735458  0.3364045432493254  0.4960321216555534
  0.1868037391580920  0.5221157137107952  0.3380526675334076
  0.0111251493278376  0.4987747412923428  0.1484687437284674
  0.1610880342918437  0.3208299882320449  0.1545072033482444
  0.2016189093412398  0.4967252078998420  0.9995432891704223
  0.0179717761703798  0.1127727236944894  0.8446221083650420
  0.1667710623764573  0.9884668062253472  0.8622869453399219
  0.1162224268862199  0.1560997539450374  0.6776795488521891
  0.0069981659549328  0.1530997749475726  0.5091157915839372
  0.1747481557295733  0.9890331496664847  0.5159522388762192
  0.1870098706227712  0.1606920747219705  0.3318337239561446
  0.9879400773668580  0.1774064357278290  0.1686616212772111
  0.1269445626104461  0.0283524937629283  0.1700328823543821
