Cl O  Li
 1.0000000000000000
    11.7780000000000005    0.0000000000000000    0.0000000000000000
     0.0000000000000000   11.7780000000000005    0.0000000000000000
     0.0000000000000000    0.0000000000000000   11.7780000000000005
 Cl  O   Li 
  27  27  80
Direct
  0.6637564120173900  0.6293358904749117  0.6383864876655448
  0.6396754067907534  0.6773085506659234  0.3463121899242996
  0.7144477889417024  0.6564359736911497  0.0040213518683683
  0.6540793059370862  0.3600508299855377  0.6653791630892278
  0.6727361164261700  0.3254276061964217  0.3355572205326168
  0.6767610139401727  0.3406856462788379  0.9758394747767730
  0.6584462241942115  0.0184986270422711  0.6479855783609058
  0.6342841266914772  0.9945512559302281  0.3384241948370960
  0.6557642682131312  0.9988635574320622  0.9959821681295654
  0.3256172278147499  0.6414358054273083  0.6580602511667619
  0.3266961639894920  0.6704488242629296  0.3316898922340776
  0.3482599686107748  0.6699002874437333  0.0045665204912334
  0.3212498439754103  0.3352397716042654  0.6865640040308228
  0.3355935210744663  0.3254637394247878  0.3287775742704724
  0.3526308139526636  0.3452700521581289  0.9974188988589837
  0.3327989549256542  0.9576531272254454  0.6669263535152670
  0.3382522789156545  0.9861626302828861  0.3458417494608660
  0.3187797481445147  0.0090016557327926  0.0327615841236534
  0.0122497236063757  0.6852034080301110  0.6859695162713514
  0.9809683312903623  0.6784732349389060  0.3148983053087699
  0.0030093279497696  0.6924800936700155  0.9982625471154644
  0.9976806762493232  0.3486470211715471  0.6441631483819834
  0.9996111653777626  0.3215215738459855  0.3268700636960202
  0.0087649830642976  0.3252718790671104  0.9995570816591363
  0.9905947654520421  0.0082724609953645  0.6648370634502109
  0.9750702497688554  0.0139616017442936  0.3481871097437550
  0.0208102635885727  0.9911359706392300  0.0294077095062645
  0.8421241161552689  0.8397331408571872  0.8357231043176893
  0.8744619992817234  0.8236930643537801  0.5192960632783300
  0.8360702518370120  0.8514994965171373  0.1881499239335965
  0.8319490800181863  0.4857146274712831  0.8234902757644793
  0.8332848556335500  0.4835046908846236  0.4939949087671013
  0.8298732311092284  0.5154972334643406  0.1585034197673848
  0.8317711871269363  0.1448241155376404  0.8298509385192162
  0.8544165392319020  0.1733080710362437  0.5000820116069140
  0.8263215270665351  0.1680412026016946  0.1318559937982670
  0.4944929454092484  0.8251634134717647  0.8356554936830994
  0.4818800398275775  0.8306148548902029  0.4934067772169894
  0.5004219932086785  0.8271854167855103  0.1544746660180861
  0.4915644332816695  0.4974840600223881  0.8267412541821826
  0.4936567192670608  0.4820399692386200  0.4792629563440730
  0.5137509237504428  0.5092143026966768  0.1692561827042262
  0.4887104547937793  0.1750286199876205  0.8240533468458417
  0.4797645557022941  0.1696389997901513  0.5064545365867616
  0.5068621288231161  0.1846003020604560  0.1256390441274433
  0.1694076338732804  0.8475586467141577  0.8330845082106479
  0.1789583849891801  0.8087565391543552  0.5038450494894631
  0.1724373190402844  0.8439908294783106  0.1794433341002315
  0.1583125566740943  0.4948567998301285  0.8455279418663348
  0.1705096872170949  0.4885667436303163  0.5133710235344832
  0.1699728709240745  0.5118586477319286  0.1637286590791693
  0.1787033673920056  0.1676389395685899  0.8429432723253258
  0.1721453787492500  0.1668358102490234  0.5259580994246160
  0.1595871487136952  0.1764503866136841  0.1835600120385545
  0.6728889893340811  0.8276050075740666  0.8544487400036610
  0.8435546276298783  0.6556161036545755  0.8430516922531294
  0.8286663610390946  0.7999816504344315  0.6765737028192693
  0.6669479578533104  0.8786174337991559  0.4932413133465890
  0.8570856613380332  0.6784555833001747  0.4859238993842907
  0.8494998291078723  0.8341936031867325  0.3448332174139991
  0.6883441731201710  0.8358773104150692  0.1935223175891387
  0.8484757911490006  0.6921072230445230  0.1581781498626222
  0.8426611146326340  0.8538701601812350  0.0009660188778788
  0.6702467090547359  0.4736929303308791  0.8288762927604643
  0.8559553896634948  0.3290522649478163  0.8474452499099913
  0.8141874829135641  0.4747548626334491  0.6705513361499411
  0.6694919800427456  0.4953062688512162  0.5170432121571403
  0.8477744219073035  0.3230140077550890  0.4555913395826893
  0.8216801177300568  0.5114067495862448  0.3294730528850244
  0.6684808974150529  0.5162799783800053  0.1612728141125704
  0.8507660507889693  0.3251585604047050  0.1735299339117407
  0.7956518857418227  0.4967156469418400  0.0083846862178376
  0.6637745494810405  0.1891546677655759  0.8352418947352133
  0.8500630621308746  0.0066399519959810  0.8100293627863300
  0.8296261891378108  0.1703032439109392  0.6571201799480936
  0.6744757744910359  0.2061514549911344  0.4958080883364072
  0.8382490956288422  0.9927173383422679  0.5289121983312731
  0.8384022924200326  0.1822772087530309  0.3111707528880279
  0.6717533735854313  0.1373082319744930  0.1626357453166473
  0.8226555731970076  0.9912289668910175  0.1415813584872121
  0.8001971017442975  0.1470613595333004  0.9867667766416854
  0.3378114332868828  0.8387223821127739  0.8575741326797490
  0.4835266624204149  0.6446528570714869  0.8319982036912980
  0.4832369083415170  0.8130409481460348  0.6520683295257040
  0.3230372140958833  0.8223157507078240  0.4733469043612314
  0.4928785896881285  0.6392813743376684  0.4617199399676844
  0.4908826589783803  0.8389900716432578  0.3308992526634758
  0.3294271275592977  0.8295578618076450  0.1542653159633172
  0.5141397051420394  0.6635388149807976  0.1561515109694391
  0.5005098870336454  0.7969678355481217  0.0104372016138139
  0.3242401368385484  0.4691299412334433  0.8248264562339424
  0.4875260541261590  0.3386237445936022  0.8151484999600299
  0.4987720508122268  0.5132405767146171  0.6568130171429239
  0.3519758814761607  0.4490452508213958  0.4876657841467029
  0.4928753103699239  0.3263709972187047  0.4855339844012160
  0.5154676265878758  0.4984168438672684  0.3258772804736176
  0.3432508707812756  0.5405598074548279  0.1682669419551928
  0.5088380192549470  0.3522501416848567  0.1192002647742385
  0.5120952729111903  0.4669844979048087  0.9831320585310912
  0.3172743993896422  0.1766179557254011  0.8730583445047616
  0.4796695769305890  0.0263249046523685  0.8053419620241670
  0.4916850393178630  0.2100377304615228  0.6646580774528925
  0.3406983466557544  0.1503751814285740  0.4808956519558928
  0.4757075127728040  0.0078216097770783  0.4803271153441892
  0.4803096512616462  0.1660295534315395  0.3458947043770598
  0.3290453501436196  0.1867412312658830  0.1765689712084395
  0.4851246215505114  0.9919039826611858  0.1159376366798266
  0.4855819042557165  0.1385088875342018  0.9891678056284026
  0.0132445285689368  0.8464320187265132  0.8253020788298473
  0.1790221090244163  0.6515376034578202  0.8478064607374226
  0.1890116207704761  0.7849409967606561  0.6652962894550928
  0.0082648788144885  0.8436250842849665  0.4997772779263404
  0.1564628693863803  0.6472021018788038  0.4893392890517363
  0.1320282949534372  0.8484357226349687  0.3451288418773375
  0.0156197582281736  0.8681761656063472  0.1913205590552858
  0.1502463448123610  0.6964377854035275  0.1582858612957518
  0.1758844087837083  0.8610213410503439  0.0079718103140695
  0.9925689991449882  0.4847435444286052  0.8437099040478370
  0.1554747116220628  0.3282852890993209  0.8769586279269873
  0.1485388119202779  0.4801423371041916  0.6691856013312263
  0.0040217450145288  0.4847208321136323  0.4694888472215671
  0.1990867591585464  0.3328994315122084  0.5360009506982640
  0.1595574425441561  0.5388178012361862  0.3273790260270060
  0.0195417873762100  0.5229201928903369  0.1348690495831405
  0.1845642782465168  0.3322519888365433  0.1719244647381014
  0.1675393435397018  0.4615168623223967  0.9939129600930057
  0.0075619799833971  0.1398187524872077  0.8780761871828066
  0.1672516440953580  0.9978483386899551  0.8216540195115110
  0.2035831497566408  0.1550085341684752  0.6916658944198907
  0.0035886716355876  0.1745457707460422  0.5349697468218340
  0.1634140219663578  0.9869160042988128  0.5420213335825055
  0.1669901488325941  0.2079315377378192  0.3335753989882307
  0.0167395783411038  0.1497394694004372  0.1593507591545993
  0.1869939291528884  0.0031432676253879  0.2016644193517933
