Cl O  Li
 1.0000000000000000
    11.7780000000000005    0.0000000000000000    0.0000000000000000
     0.0000000000000000   11.7780000000000005    0.0000000000000000
     0.0000000000000000    0.0000000000000000   11.7780000000000005
 Cl  O   Li 
  27  27  80
Direct
  0.6751632939328858  0.6563888348735398  0.6679789516428534
  0.6632091669416617  0.6802384659824035  0.3076833778737259
  0.6493428330684331  0.6751543486882967  0.0033926832787353
  0.6721700861202324  0.3666524885851655  0.6744797748867821
  0.6458587396603295  0.3420648489386144  0.3486908876542754
  0.6672299754292610  0.3418390618074122  0.0133291784316097
  0.6547548821830056  0.9863686252257198  0.6580766657124963
  0.6599799696745029  0.0351460417437097  0.2986497266562088
  0.6533324677903830  0.9891399097334818  0.0195965615366897
  0.3462016460946682  0.6515556461502042  0.6712662454732675
  0.3112986883656130  0.6649942111820697  0.3448156242153891
  0.3349563376605694  0.6686289103151281  0.9976604875615105
  0.3044607026277537  0.3200646115982427  0.6734032678366358
  0.3148975174254697  0.3289302078791236  0.3501679573503090
  0.3165224600812874  0.3001284216698332  0.9981640016000838
  0.3222285547282108  0.9615260767865332  0.6767360267824062
  0.3376742649283763  0.0155889356860486  0.3386398583278208
  0.3099124476867666  0.0037980344811570  0.0036122239539938
  0.9961447395079337  0.6608630394669903  0.6782146349240171
  0.0087738373558244  0.6720504132794736  0.3398568497504380
  0.0369749959401930  0.6495867192088820  0.0053028801233951
  0.9995800001578616  0.3492830736465742  0.6476017946294423
  0.9928004371596562  0.3524060776834762  0.3445600398224755
  0.9924640653963881  0.3517321575497141  0.0033531679371784
  0.0207709408748624  0.9883083697774939  0.6697443179430272
  0.0092408808403306  0.9848206896151041  0.3100504180936344
  0.0069123631205588  0.0194504100473452  0.9904050513848528
  0.8447551781864125  0.8206405721005370  0.8202871285706190
  0.8463472264466586  0.8319382686550905  0.4930156251409179
  0.8445321845484957  0.8279004158099090  0.1466630747327866
  0.8201114662471025  0.4900059456676151  0.8258063425652870
  0.8268183602275955  0.5054461498520294  0.4927204460170889
  0.8487945694771715  0.4958114319959265  0.1668922170874788
  0.8347076710906220  0.1812819623628808  0.8364291473362402
  0.8420474329992039  0.1534262392129290  0.5028440656835552
  0.8365047374667742  0.1771098194129481  0.1756363267745002
  0.5138786514291348  0.8450699542796558  0.8325508879770186
  0.5145369037092522  0.8095202016414944  0.4929524274160109
  0.4998738979393416  0.8222105962977790  0.1846619011527355
  0.4975150560149447  0.4930256309383653  0.8446795070850583
  0.4857865137278732  0.5150887218776596  0.5050632329436797
  0.5011061928469139  0.5102613630533543  0.1661785301598091
  0.4987666624630555  0.1532947830868732  0.8271746684502377
  0.4848460781405153  0.1716339450496146  0.4990415140409105
  0.5088346551762725  0.1609581145130004  0.1347896351635611
  0.1848618219771771  0.8292628308250092  0.8255209204252522
  0.1738169365649567  0.8359076201866633  0.5040748221455500
  0.1780825198410171  0.8387480765476356  0.1613594607231879
  0.1623973080770343  0.4882825627375428  0.8536218434604694
  0.1709555897324585  0.5164623108659017  0.5150402144553650
  0.1776445284336457  0.5024689337763000  0.1877604722447423
  0.1643359924171358  0.1688347230786602  0.8150730935960339
  0.1518429034061649  0.1650733552192708  0.4869989264289805
  0.1834426666600543  0.1736268393536178  0.1677309128396724
  0.6689046139257725  0.8024302347122055  0.7788902301173241
  0.8361746194341720  0.4895759501287055  0.6530468393531110
  0.9889002414237676  0.8491489403013303  0.8432756350101855
  0.6702052077199036  0.8179431102074516  0.5001488304880163
  0.8156894068616470  0.6597602169003872  0.4634129363096074
  0.8708116689907807  0.8328206886500128  0.3327618626303174
  0.6713102164986433  0.8461444370593054  0.1717765085195037
  0.8473219531762307  0.6759882671621179  0.1205621613123684
  0.8270082368001863  0.8537668681000468  0.9884978229431010
  0.4722047922864808  0.3153250858707894  0.8430202530443218
  0.7819127532369569  0.3328784057840061  0.8376858144605926
  0.6659085721344238  0.5275207791331549  0.8222343148468068
  0.6707913554849286  0.5104432235147781  0.5110220780048214
  0.8561936020258968  0.3145962675211568  0.4882106952337163
  0.8468566138744487  0.4934812537417630  0.3272283572859427
  0.6739196226251221  0.4945012431596412  0.1859855109024141
  0.8258299494294659  0.3338861686080843  0.1557749336409439
  0.8462275515748937  0.4754270280941374  0.9895376034005916
  0.6821123311501943  0.1733806273331039  0.8364170017132598
  0.8876046931481411  0.8404863482301236  0.6729678067673853
  0.8200284711567379  0.1073643992786316  0.6737612398312728
  0.6694059042715758  0.1813752002619589  0.4849581783704353
  0.8753581805263734  0.0008486037320407  0.4780698287826181
  0.8409198333617210  0.1788368257872095  0.3364177963608860
  0.6590608698981802  0.1644684829521512  0.1144390163363619
  0.8358211818054478  0.0204070296773241  0.1787594522676319
  0.8444787438073827  0.1631377174062669  0.9954211756470213
  0.3314726693492701  0.8134184607932232  0.8349944253789977
  0.5142508338026583  0.4883464891998286  0.6886154581923020
  0.5319288690211769  0.8488613319491588  0.6338167554593613
  0.3427132612331117  0.8271192093398216  0.4901239142509692
  0.3358334945522004  0.5032145940564652  0.5303643064840885
  0.4765248689243124  0.8067668698827002  0.3342101067144778
  0.3436486766296376  0.8708583506994407  0.1561418630325286
  0.5053221410103953  0.6674206232556466  0.1504712538474123
  0.5224040690530448  0.8297750522314948  0.9891843542820574
  0.3153536058110816  0.4958083551047716  0.8299394980654533
  0.3365100259949031  0.1370666720970274  0.8227173057873197
  0.4949765803266705  0.6648493138999159  0.8616739866422507
  0.4565213112737728  0.6637177871776694  0.4871788840761374
  0.4884251098349142  0.3322177648647024  0.5344149122333992
  0.4946835469295679  0.4971925107850065  0.3294507228934520
  0.3408322686021661  0.5183394978683132  0.1815336947406571
  0.4991405047383865  0.3150742180281332  0.1288142315697564
  0.5103437893169739  0.4996940637794209  0.9960146332425853
  0.1778175630757038  0.1576942718562905  0.0033416666749220
  0.4837156040389270  0.0006227467002480  0.8212715717985751
  0.4731310984657716  0.1167217414699239  0.6733033498449188
  0.3204339377193597  0.1860201318291013  0.5220076725341933
  0.5192388387335818  0.9973331015531349  0.4691537674382543
  0.4995428082569011  0.2138602883389334  0.3325431806885586
  0.3442328001241660  0.1349282327443115  0.1788748356859439
  0.5052629513410716  0.9929132005460966  0.1562998775875011
  0.5090035198211074  0.1424945611282367  0.9775732272748091
  0.8283219582314009  0.6618366730904942  0.8354324775144840
  0.1616072150594666  0.6578031926695856  0.8578986411950814
  0.1966028337705084  0.7901118200023950  0.6797989504709658
  0.0195393139765540  0.8128644584436858  0.5212906354388516
  0.1710316415750196  0.6781827383221828  0.4659412096745783
  0.1771001413689676  0.8412165529621340  0.3144091380552481
  0.9844938298921642  0.8694593368737602  0.1341738824425218
  0.1662258209887994  0.6771021017602232  0.1560838170760356
  0.1956143217588539  0.8217952159918558  0.0068972278284087
  0.9819311730276378  0.4954556057280163  0.8339562984974689
  0.1631540411168165  0.3218317592564536  0.8447018550313421
  0.1706003100175824  0.5073952389424840  0.6805603190901854
  0.0195476944564104  0.5246628330750911  0.4840431676205161
  0.1349887260370991  0.3295861929762848  0.4975842417103346
  0.1962099026243935  0.5047490315783751  0.3440166446503408
  0.0194351526078081  0.4969277362040379  0.1889196505019737
  0.1774207655729403  0.3356952793936918  0.1960680581205023
  0.1832720813852972  0.4839351584480057  0.0024892899437135
  0.9980908624095259  0.1839790598872766  0.8055802366163400
  0.1533058133300740  0.0236977419945397  0.8147340687732462
  0.1640755092896202  0.1604696782848512  0.6489278537464218
  0.0026770366788711  0.1560464751865651  0.5157429602010000
  0.1516856074672187  0.9835050719383802  0.5310734489244932
  0.1574037971303599  0.1682311868300684  0.3270030559796597
  0.0103800782825905  0.2142260537749825  0.1228471173636357
  0.1769231998848509  0.0088836016590071  0.1770012113996065
