Cl O  Li
 1.0000000000000000
    11.7780000000000005    0.0000000000000000    0.0000000000000000
     0.0000000000000000   11.7780000000000005    0.0000000000000000
     0.0000000000000000    0.0000000000000000   11.7780000000000005
 Cl  O   Li 
  27  27  80
Direct
  0.6542633864114535  0.6646702033537323  0.6782425317143672
  0.6642463597638092  0.6689834784426950  0.3320185933322439
  0.6783994922810105  0.6465571119200626  0.9946125840888960
  0.6660830208708768  0.3572037980950742  0.6879365606960235
  0.6518396868603423  0.3453763904369436  0.3450891459878090
  0.6708433358563312  0.3528350175090919  0.0054754395070385
  0.6728695496527101  0.0151603717562182  0.6290381838969323
  0.6592106630199833  0.9890402442132793  0.3442482235380691
  0.6606078145168071  0.9938136499030020  0.0053770602771911
  0.3304370294254996  0.6499256194828045  0.6592986796688510
  0.3243304126180986  0.6310542768064802  0.3114526123669005
  0.3221668925539285  0.6721681012735164  0.9722033384665740
  0.3477435705224633  0.3426005487902262  0.6778067872472473
  0.3410393485790261  0.3478958379825489  0.3272909298299014
  0.3614284083029576  0.3252294334644175  0.0138472055114811
  0.3239824405197155  0.0069738068921035  0.6587971059251783
  0.3369815769121571  0.0008345012791034  0.3345423525740072
  0.3456944014986519  0.9788317974916485  0.0152005986060114
  0.9833622572592170  0.6746953625032389  0.6707495730145950
  0.0263449439162471  0.6380524633114485  0.3298220776589775
  0.0067829429194911  0.6531733995531230  0.9930298500032728
  0.9810159797287593  0.3234295331095700  0.7044780085160539
  0.0160420434680713  0.3284784280970343  0.3467147566528906
  0.9913755369777996  0.3525784209809299  0.0111266062066185
  0.0037936852809367  0.0094822696073415  0.6600985903983279
  0.0218476828818391  0.0183815744200842  0.3087090578346054
  0.0017938676555426  0.0165461316708218  0.0024389036077184
  0.8229408267108003  0.8566239203864564  0.8320921501399616
  0.8419190103839403  0.8205943346697568  0.4616798392240566
  0.8324946547178548  0.8471783503655653  0.1563863668873784
  0.8296355750683130  0.4998279054520274  0.8644803161455540
  0.8513137307299544  0.5018344838245882  0.4986116018157264
  0.8138394636451682  0.5032840639272765  0.1710863763219687
  0.8371685333530999  0.1578149962560783  0.8324049404171120
  0.8071626098388464  0.1809207484428138  0.4965584652217415
  0.8353623982451227  0.1827163371015034  0.1623015889193161
  0.4994567738658384  0.8410895876239455  0.8287590673109120
  0.4787347216451993  0.8211265558687497  0.4970526301353964
  0.4994873808357485  0.8233282334317825  0.1817064888131611
  0.4863812819902614  0.5067040689314546  0.8480421061208557
  0.4831236639653287  0.5109473852320512  0.5046733203035105
  0.5015970755474114  0.5007923893728859  0.1570175647923075
  0.5137190145628121  0.1723605336090654  0.8416419296060230
  0.4888312160870098  0.1750551210380453  0.4895903188909442
  0.5315796389801331  0.1769987243554537  0.1657853179587304
  0.1638887674413467  0.8297432276066511  0.8210169613984057
  0.1578599231064290  0.8094487013149154  0.4981832661786243
  0.1693889735360506  0.8270131344731592  0.1829230956243840
  0.1624492479630270  0.5015715310870666  0.8143572734058957
  0.1585125479145657  0.4720355622113274  0.5000065671004137
  0.1719168724109796  0.4770692751700664  0.1622881882486280
  0.1949426456703904  0.1601398810428931  0.8454687724946283
  0.1601504256588572  0.1667433651650620  0.5075666101244467
  0.1616166958717909  0.1730658096928213  0.1586735192721346
  0.6571667570994634  0.8649992181103313  0.8460211554277681
  0.8024943991609921  0.6592015151506619  0.8201762413757153
  0.8068110345389793  0.8383864577734693  0.6698469912855256
  0.6615679260133930  0.8239747044576095  0.5019083287466555
  0.8628046236607130  0.6764359112471233  0.4916347916072033
  0.8120408588234386  0.8575819671271355  0.3384833845613313
  0.6589446738767168  0.8384946347888130  0.1914985532149727
  0.8314315078529870  0.6710695296749564  0.1216208571250492
  0.8532716051543644  0.8708193196716291  0.9990216492392241
  0.6884597927663400  0.4912689254232819  0.8569364268000849
  0.8650145602473727  0.3480739333008488  0.8666083102625072
  0.8081031668824340  0.4988116406918631  0.6703987669375167
  0.6436386383408238  0.4816646121100395  0.5175615671581427
  0.8031912340367766  0.3302753932596616  0.4727189959507713
  0.8068332205436232  0.4919948693088092  0.3470460892477908
  0.6683787460411865  0.4997790800476470  0.1450787311646860
  0.8095142453602752  0.3414350952944549  0.1535233399103678
  0.8458980784138975  0.5097145640141497  0.0169598478137780
  0.6745006258481325  0.1595759597679218  0.8327388640782482
  0.8555028370666494  0.0017554950135095  0.8078534542416319
  0.8182402277049986  0.1516032287177262  0.6569521857944840
  0.6632805398244226  0.1522988490312129  0.4727753111559896
  0.8508113067926728  0.9925095927085679  0.4895327081526081
  0.8495877567336464  0.1493601345803307  0.3351745322501272
  0.6844252597247731  0.1747088290841745  0.1791304224217632
  0.8332305984996359  0.0193632368064455  0.1515873174859696
  0.8168539262980370  0.1504019658768683  0.9818063435950080
  0.3147656940357717  0.8508141021192819  0.8516050651075107
  0.5165308882243708  0.6702244777134030  0.8338885687495549
  0.4685433698879133  0.7946003533383269  0.6728276081356894
  0.3152812352458718  0.8182716057310211  0.4959396052454898
  0.4945214404532391  0.6700905114919313  0.5160898820216305
  0.4823042392682637  0.8506469783470741  0.3487185010467561
  0.3290893713423202  0.8259905539890452  0.1938173955543548
  0.5186852788286009  0.6579064678576918  0.1867261938200630
  0.4894529100419569  0.8228185221207132  0.0106612397037019
  0.3182127230510807  0.5039343405816370  0.8379699838958254
  0.5019412825026707  0.3469924465452808  0.8137542837103381
  0.5061088506012806  0.5209134356830543  0.6923088230272603
  0.3292106251450727  0.4877491643690263  0.5096811225998918
  0.4951921217542065  0.3437190392104738  0.5047647768445517
  0.5159208945528946  0.4960847054203459  0.3426526935325687
  0.3331261310814335  0.4876502989979674  0.1662492503925170
  0.4736798753024747  0.3292547155898145  0.1776386970073335
  0.5048844098632356  0.4857440029858133  0.0058167685189775
  0.3596156335877511  0.1460877292594197  0.8307345124032335
  0.4882068500950070  0.0074439917913868  0.8237955560529988
  0.5007953024890777  0.1507165172693508  0.6566296790189494
  0.3190309534285526  0.1340586840171127  0.4911598167778571
  0.5005993126195869  0.0117840517745281  0.4834796940279598
  0.5237767239819057  0.1661173493926044  0.3258383740495829
  0.2290697005180598  0.1669275332948520  0.0054603033406917
  0.4999096436613605  0.0269034849953589  0.1496733090032229
  0.5161108520963051  0.1670576129169700  0.0068244310784076
  0.9924941608733832  0.8099208421655664  0.8091327122247277
  0.1645443881698185  0.6686357897421813  0.8320461587142766
  0.1780834481104928  0.8227334217890316  0.6498516926586123
  0.9968637910203896  0.8214090630592693  0.5083798405537918
  0.1350435505085495  0.6487699229708274  0.4883786715424382
  0.1432295485769252  0.8003859613303607  0.3338747279214899
  0.9890919156798911  0.8312614304791776  0.2054068502155979
  0.1765279784181220  0.6490653854925259  0.1742025990527067
  0.1813762277139532  0.8198754757309679  0.0142349722374912
  0.0162576523141822  0.5090677691050436  0.7838048778283526
  0.1872283127490988  0.3281556176809251  0.8291317759947647
  0.1662729532323623  0.4557033429898362  0.6456053804376806
  0.9935167438878354  0.4439699019681626  0.5098701489788737
  0.1884431179595796  0.3208102687857723  0.4789467046192851
  0.1949870379223831  0.4613239729363890  0.3465954056644051
  0.9945488979062296  0.4820053373200444  0.1721142199093741
  0.2070302530581670  0.3220730694497300  0.1709250824487915
  0.1377403241496658  0.4871731379564848  0.0162736681918203
  0.0047725728352561  0.1915874393981354  0.8619587228732224
  0.1459708865330264  0.0108850416177162  0.8445150981782220
  0.1883541917566595  0.1464732009687542  0.6944673431433034
  0.0073768986753726  0.1814514919243441  0.5045243744803632
  0.1504187047605524  0.9852206444175451  0.4848120283834791
  0.1932360641854408  0.1908446130966657  0.3071629807573393
  0.0053764712384914  0.1767633826675071  0.1267948520292096
  0.1443029584932113  0.0178241573792527  0.1845779772408479
