Cl O  Li
 1.0000000000000000
    11.7780000000000005    0.0000000000000000    0.0000000000000000
     0.0000000000000000   11.7780000000000005    0.0000000000000000
     0.0000000000000000    0.0000000000000000   11.7780000000000005
 Cl  O   Li 
  27  27  80
Direct
  0.6619267540471880  0.6863859781320860  0.6619635604128528
  0.6484331288578120  0.6624904770537671  0.3420904822507278
  0.6715589618078750  0.6451743004292388  0.9958133877905302
  0.6666422516838453  0.3373266643079370  0.6441903439955792
  0.6596617977884282  0.3449044601842260  0.3390650682944719
  0.6685375761499075  0.3408654332621565  0.9927433133664409
  0.6910831722047955  0.0092781123862657  0.6735635210379738
  0.6848559493612011  0.0099764597716622  0.3433302264737281
  0.6552261757906448  0.9993885110409089  0.9945588872681937
  0.3527966413527004  0.6644902943628688  0.6635967013641819
  0.3287642186179846  0.6494439727317027  0.3444372190375545
  0.3674153560841432  0.6691485456298796  0.0029460228626746
  0.3120454851878532  0.3490361986950445  0.6607655566474945
  0.3537929468057672  0.3066735815158877  0.3465999901216409
  0.3152684274591773  0.3367732085114337  0.9906244822364081
  0.3415439645739936  0.0054355940530017  0.6559367403484316
  0.3130069529456718  0.9934939169579170  0.3543813668817833
  0.3373709511877473  0.0018150872701711  0.0025058229445620
  0.0137033197817778  0.6613065622110658  0.6446656831936147
  0.9726203806218450  0.6825714428081006  0.3399733989517521
  0.0037619208336251  0.6703061854415335  0.0226733608966327
  0.9915416544603087  0.3370885088840000  0.6736494310778537
  0.0070186459654933  0.3042020889383494  0.3327858014564073
  0.9909699644147218  0.3266829285800480  0.0189622480826620
  0.9927994305053428  0.9812172224630435  0.6651372521829920
  0.9944394546089452  0.9952872934685044  0.3278324722790923
  0.9846419512453429  0.9885511114568468  0.0260184729531090
  0.8475411441362103  0.8365303313551069  0.8214246185969447
  0.8267685661239735  0.8353062145003415  0.5046560021539720
  0.8253255041722846  0.8310902258514501  0.1511892239346489
  0.8236473839305186  0.4846015938591780  0.8314749596714306
  0.8345635459818539  0.5168773723667934  0.5042812691996226
  0.8454841614282818  0.5116663737979533  0.1728431490784448
  0.8535852109852632  0.1666656008634622  0.8273706297831375
  0.8167196015534257  0.1711519510798929  0.4808448321845458
  0.8216256235292325  0.1816342309929649  0.1529306532361993
  0.4982275212095608  0.8490390274916074  0.8243704179945653
  0.5016638823193522  0.8407707731915983  0.4898811756818236
  0.5051417814597359  0.8442746234797499  0.1757575520406616
  0.4904633507486404  0.5034659325595837  0.8331129993573618
  0.5159755961872653  0.4966126433367692  0.5070352487249757
  0.5056636788791957  0.4945700329493672  0.1911438701444538
  0.5019755390050245  0.1597453791366743  0.8226716501937330
  0.4889779815435704  0.1682645417647497  0.5017782587304506
  0.5067087692512329  0.1678509630595685  0.1731508786793535
  0.1771479171032867  0.7991622170151680  0.8059463986126022
  0.1640702491369257  0.8435900151977651  0.5022994274125315
  0.1878214298501822  0.8307095010564304  0.1660215194461988
  0.1712153875586021  0.5148243977144483  0.8443670526400064
  0.1711727361792366  0.5085023580407882  0.4905272823389609
  0.1770663997303845  0.4987481272545601  0.1414637377894739
  0.1630006549705257  0.1620178353176245  0.8376551384686817
  0.1368373434120467  0.1699973476739840  0.5061266346698260
  0.1601816052700561  0.1530162485447751  0.1788646048260495
  0.6848792689573231  0.8473737006393807  0.8282259245534038
  0.8366445770232834  0.6718609871246404  0.7980004081756680
  0.8150632624622041  0.8603969663361428  0.6679476683697931
  0.6631648788537908  0.8190999858745649  0.4974743762565926
  0.8440114641565210  0.6680218366714152  0.5135095135399876
  0.8124507389591606  0.8530566376318220  0.3325083346994243
  0.6613593105415524  0.7941110953301576  0.1426953039596674
  0.8769812435612258  0.6793916377410614  0.1711883484328008
  0.8710414671281630  0.8295821443314071  0.9820362496012316
  0.6578472012297745  0.5226919679123402  0.8052552316942084
  0.8058378521005345  0.3204311108499187  0.8400388384347781
  0.8616372731962245  0.4831287751311876  0.6632140332694854
  0.6627289319596210  0.5166867265714140  0.5187265444349081
  0.8003030917084517  0.3570983417730794  0.4800252050604311
  0.8584609498744397  0.5067640359944503  0.3343779509301782
  0.6638036171663202  0.4777655919064053  0.1499921816977767
  0.8207175357844120  0.3602604952013876  0.1876154452124724
  0.8197828086398549  0.4666488246488471  0.0056935095404095
  0.6579708841571230  0.1493623289633506  0.8106078887124077
  0.8541477962417066  0.9823511846357313  0.8079701023135651
  0.8585497748638348  0.1936340862547095  0.6457158342418939
  0.6479350773448035  0.1372559464667171  0.5163839371598946
  0.8333711696884764  0.0093203032440932  0.5073033431095589
  0.8016847777786806  0.1656169376539982  0.3111083138040298
  0.6593794930249580  0.1581344039472839  0.1451805312125259
  0.8281764867398397  0.9924440967513473  0.1413702670992887
  0.8262180455196906  0.1877508476966196  0.9780949544587428
  0.3259525271407706  0.8364621539247782  0.8123246320352506
  0.5051295143805260  0.6611634462869490  0.8619836310062451
  0.4905799892146604  0.8400393637757301  0.6559371856879409
  0.3236379964975464  0.8404183881835324  0.4976291519787703
  0.5014060712288922  0.6588638345172856  0.5094728752571044
  0.4926116685413803  0.8321919148265752  0.3365511470073227
  0.3490054256248372  0.8589526898221559  0.1464977746314923
  0.4681190076665343  0.6759977053408807  0.1752767068268750
  0.5137843638599952  0.8580250071389273  0.0086136351785790
  0.3303711857517915  0.4925609039959805  0.8058324726690478
  0.5364553432294491  0.3466367094190738  0.8428197812431472
  0.4958080726264927  0.4907543235484937  0.6618895125980834
  0.3577450920381183  0.5141609228164492  0.4717516066863107
  0.4987501473663994  0.3288254772018723  0.5003242657180794
  0.5167679766304943  0.4965656802612458  0.3358929959407299
  0.3382088777171521  0.5026015285720820  0.1434284238841055
  0.5029637878615143  0.3292010603498304  0.1900052179900590
  0.5089550617360132  0.5213651800579818  0.9812403115026046
  0.3235118844456019  0.1528275258063675  0.8272377566677339
  0.4881483950086120  0.0120631739525112  0.8043136220299624
  0.4835754869857423  0.1965573555217018  0.6591008370764168
  0.3194725538829578  0.2002745841629106  0.5191054473864807
  0.5057526253248207  0.0003355179163665  0.4742891916955664
  0.5119974188363265  0.1729405357626639  0.3533002849803145
  0.3128673997376292  0.1769828420029381  0.1471587596767804
  0.5001328050864666  0.9947865237397695  0.1769598877448827
  0.5067681613476063  0.1523852227028381  0.0089788452054105
  0.0186811198590597  0.7889537399294799  0.8122006657100326
  0.1894109680150124  0.6525877052984908  0.8460574804463922
  0.1650077697747682  0.8217892697148435  0.6585779680071187
  0.9871310537110335  0.8313538668409407  0.4937940905519485
  0.1905903282490960  0.6739449331155850  0.5369911322725508
  0.1488600628090515  0.8354803827338777  0.3524851112512926
  0.0250079924785306  0.8372492712647156  0.1880410480844040
  0.1779047311138887  0.6510295028409494  0.2113164138960582
  0.1656774288191347  0.8283986748282154  0.0164993877536230
  0.0083516021516059  0.5198307425360719  0.8983093270112024
  0.1756805234202274  0.3404391218955510  0.8338305627630326
  0.1921117294690073  0.5090639311619833  0.6556871882815982
  0.0203298413673683  0.5123079460891782  0.4769129296571618
  0.1302951238364604  0.3322325471175764  0.5233857268663472
  0.1912307062207277  0.4453738631847388  0.3209463493888214
  0.0152660300366815  0.5275432131285064  0.1637304905834414
  0.1422906066739321  0.3286720779836322  0.1508843687978456
  0.2082931202957892  0.5147847220127130  0.9874346475416420
  0.0214984615812978  0.1373889916451129  0.8172607751560487
  0.1733649806417549  0.1075176011480701  0.9848958780912332
  0.1447377675201001  0.1749388551115982  0.6660461901214211
  0.9780206130573932  0.1606375055086283  0.4902561110632228
  0.1646076119829802  0.0063252824441762  0.4910654548932141
  0.1582576879832281  0.1694425254948955  0.3417721454724165
  0.0122431325016868  0.1422970075273591  0.1632721451362256
  0.1866879598282588  0.9937414985239388  0.2087866020855099
