Cl O  Li
 1.0000000000000000
    11.7780000000000005    0.0000000000000000    0.0000000000000000
     0.0000000000000000   11.7780000000000005    0.0000000000000000
     0.0000000000000000    0.0000000000000000   11.7780000000000005
 Cl  O   Li 
  27  27  80
Direct
  0.6610680930713280  0.6906952537346425  0.6733089512579311
  0.6759698008182096  0.6584153052298040  0.3379501228252161
  0.6632235767816260  0.6725885994811523  0.9869931502980888
  0.6764592289389023  0.3316559017503585  0.6671511204069638
  0.6777857738808011  0.3301552290603334  0.3249002986995372
  0.6833744608389156  0.3205153088290539  0.0288180693613899
  0.6902695310047821  0.0244397140374596  0.6841415514231624
  0.6777395800280663  0.9938617152336403  0.2922742606678774
  0.6500306772172404  0.9866834066095372  0.9847063749337126
  0.3343251064256106  0.6602403470242204  0.6661996323026940
  0.3354528882474383  0.6590491448077311  0.3368284340575836
  0.3209924714688375  0.6348747802257867  0.0021636115826341
  0.3441958339789240  0.3355315700433441  0.6697019441452677
  0.3275392254103364  0.3462095969134472  0.3360411345333013
  0.3204085706440638  0.3549886961160040  0.9959173536379410
  0.3058366975319147  0.0141739918472938  0.6721113523466723
  0.3552409825463090  0.9878788813019437  0.3428996666167022
  0.3366710132615337  0.9941167340959839  0.0014481048674171
  0.0103209286630429  0.6477040803235549  0.6791180407877270
  0.9997367482778726  0.6683973474177308  0.3288713911037375
  0.9819544124824751  0.6651790002404343  0.9926544965479291
  0.0035256872944750  0.3214534974761605  0.6774191515306647
  0.0041911513545293  0.3462437261140215  0.3747116442681133
  0.0065826305288861  0.3274038001158061  0.0124121312690851
  0.0110047879649437  0.0060951479050765  0.6656037680392847
  0.0101610239454940  0.0140003853488204  0.3233013476768973
  0.9894342229127867  0.0144534980568022  0.9945846625047466
  0.8355829222020138  0.8265584595742509  0.8121261345479667
  0.8351877036302378  0.8385218982097598  0.4790946503907199
  0.8250388210679725  0.8218266868028000  0.1744256655022742
  0.8191695702190150  0.5017252304432372  0.8324425229610667
  0.8225303450684596  0.5109907213607416  0.5051253924743700
  0.8295303534168750  0.5037473956986227  0.1710659027880780
  0.8345610704552788  0.1690269614524525  0.8254178185125917
  0.8289714118473255  0.1606531009606304  0.5090269714297134
  0.8484559060571009  0.1770436596578365  0.1460074380666989
  0.4847798410438910  0.8339185451586195  0.8322639013324379
  0.5124545741687326  0.8414523941224253  0.5158660502736412
  0.4947690491493764  0.8174311048754412  0.1525843232745412
  0.5038465663085572  0.4847179170110960  0.8226010056310209
  0.4965534031068093  0.5022630791142110  0.5088554752332328
  0.4940165468349325  0.4862606135566326  0.1684177217602351
  0.4914843463851979  0.1701165655327123  0.8234424543910900
  0.4911449571937209  0.1721937099747882  0.4761077178166064
  0.5068709478868597  0.1737775599395227  0.1572140323275484
  0.1583836726623738  0.8265097151406902  0.8329756348390781
  0.1644958056068783  0.8415966841234302  0.5060459092400402
  0.1830687202052263  0.8236119314392513  0.1735319298352754
  0.1561612766908071  0.4812131760439260  0.8308415679106350
  0.1733748329225049  0.4998388532527706  0.4989118132139233
  0.1530404892300991  0.4987988235569751  0.1737092964161964
  0.1711710298754503  0.1568897999229167  0.8351571506679639
  0.1677882916911166  0.1720698448630950  0.5094747400635841
  0.1640724395538456  0.2002409088710230  0.1750350114071915
  0.6478721571011969  0.8432823346514438  0.8291290350704251
  0.8109404248250022  0.6835767850767602  0.8191053333956761
  0.8302250830513431  0.8570047833777670  0.6469481721124988
  0.6796026781078207  0.8262211351386803  0.5132458345427100
  0.8091316986507888  0.6567031367582834  0.4958818041636400
  0.7968854289414807  0.8289200545065232  0.3272967313270579
  0.6505845581105478  0.8657770000606351  0.1569926378633241
  0.8270540228328493  0.6657757956682721  0.1736927986116482
  0.8398580195494088  0.8225147768300388  0.0001344957651864
  0.6588786421020949  0.5131342213896994  0.8175973328464529
  0.8114423629373644  0.3113682377356066  0.8491869646265062
  0.8228335807888654  0.4885031004128790  0.6629741192078389
  0.6525886668731027  0.5026073670402901  0.4949427045948099
  0.8272733727838721  0.3441975530105452  0.4816495226700175
  0.8546299310720420  0.5323492042255440  0.3472782041864786
  0.6585386051440590  0.4866945361803057  0.1758402864534845
  0.8675958694283376  0.3500537270720942  0.1794126987833593
  0.7917933360216169  0.5102393121523658  0.0200512777234530
  0.6818081612993875  0.1852846672769601  0.8050206212212633
  0.8274294035537577  0.9994499725087129  0.8425434707979700
  0.8568729847240275  0.1502182901907061  0.6709275184747912
  0.6787800955487810  0.1506831031821588  0.4707716598164799
  0.8672216222989074  0.9968198497133079  0.4514430749203606
  0.8473851479351655  0.1781387292684374  0.3268309669284717
  0.6778447611230749  0.1864048175990151  0.1763339048141053
  0.8387587596988797  0.0176218659955352  0.1637051491944454
  0.8569332270140095  0.1851167945246686  0.9876012601328340
  0.3036309106997734  0.8136437757469318  0.8189054974122417
  0.4839848695344262  0.6879122866557765  0.8389937100549535
  0.5289888560712046  0.8543193051660221  0.6653887905125349
  0.3275704194186906  0.8535364792795375  0.4938483029934730
  0.4590601078793544  0.6601128584683381  0.4873095449204361
  0.4810129570473982  0.8090812319890051  0.3241135052428791
  0.3353113512543089  0.8504625030740657  0.1722025509146812
  0.5146113938975587  0.6500348253734576  0.1447538478335013
  0.4707650066870244  0.8238365444935654  0.9951570812877123
  0.3285774332626850  0.4905577349670316  0.8319222044725946
  0.5010310489601042  0.3282746817688972  0.8114830642965744
  0.5126754220799229  0.4904464810605329  0.6748824167150176
  0.3306323309720021  0.4858041405596263  0.5745719999193158
  0.4981252896329083  0.3292741855693488  0.4927724032244758
  0.4628475179786837  0.4896126435575314  0.3347711679517854
  0.3214803206585428  0.4986321451242766  0.1671745362773905
  0.4751868231600203  0.3139986760325460  0.1826268152353178
  0.4975022191740234  0.4598560291976516  0.0145493117785860
  0.3449849755893583  0.1606094880527790  0.8399130527437355
  0.4534959955650695  0.0018506371267406  0.8395177532011395
  0.4746848445622481  0.1710108477527453  0.6629642002824052
  0.3349161326825328  0.1756292411336760  0.4871421782357688
  0.5148436586943504  0.9986024972739705  0.4959166621015931
  0.5211037961762213  0.1748003428506864  0.3353458785885040
  0.3153700601642477  0.1888010073140762  0.1280248715946566
  0.4881647451976563  0.0210816846048762  0.1287941348688133
  0.5100248018061313  0.1878438107670057  0.9754541999205693
  0.9888114339540178  0.8182798410092986  0.7945131998686222
  0.1736064297100325  0.6633335942848210  0.8372440925792438
  0.1398345331210095  0.8566279451821009  0.6796497761618004
  0.9977115571729965  0.8126653243596458  0.5046515107510920
  0.1810666357131682  0.6818859524162748  0.5182295075347705
  0.1732746517756231  0.8543087789594392  0.3530568891734139
  0.9671366562937678  0.7957793457010770  0.1575298691317963
  0.1878570106089452  0.6724216781359943  0.1801651403696883
  0.1288244145545700  0.8571027580698072  0.0117238717091921
  0.9888575620179614  0.5094662027642655  0.8461468342237393
  0.1175629423205550  0.3189133821287839  0.8405089979779647
  0.1739906969784215  0.4773647139464161  0.6472501122997869
  0.0083584768569720  0.5256148611371158  0.4860601246844617
  0.1530636165205239  0.3324114607132524  0.4705078163999399
  0.1775955786070633  0.5105988225925803  0.3454040940752219
  0.0012155341362000  0.5425649686850201  0.1720575321762975
  0.1285677370555882  0.3580509720380049  0.1779333214189595
  0.1577778388667684  0.4887964576932611  0.9980073727566682
  0.9857112700141639  0.1665936466164820  0.8216047406633639
  0.1689768724773126  0.9855136477434534  0.8437745511432443
  0.1982972261810957  0.1845953019593082  0.6762913494661321
  0.9966724376081938  0.1852026033510238  0.5322722768244917
  0.1639711551795431  0.0185559807982670  0.5273407085550162
  0.1977776364300022  0.1982197962362959  0.3344237828918464
  0.0174356486249992  0.1500424215699526  0.1614468629069722
  0.1296709138695284  0.1697588364505351  0.9941809375687927
