Cl O  Li
 1.0000000000000000
    11.7780000000000005    0.0000000000000000    0.0000000000000000
     0.0000000000000000   11.7780000000000005    0.0000000000000000
     0.0000000000000000    0.0000000000000000   11.7780000000000005
 Cl  O   Li 
  27  27  80
Direct
  0.6832189712106841  0.6680356217484934  0.6676607922957168
  0.6875782782107418  0.6634580579034814  0.3473084478507928
  0.6920358837861194  0.6458695359263270  0.0055498332079002
  0.6389241675997205  0.3317695962499765  0.6689322770801052
  0.6425731580824854  0.3190270563856969  0.3315579432419389
  0.6536368489676201  0.3382061286629299  0.9847824038011550
  0.6651858384616343  0.9850395396369154  0.6788038750697323
  0.6731601686855222  0.0162121059058568  0.3627884491931724
  0.6584278114083947  0.0066640407438724  0.9873527604845833
  0.3413947847531427  0.6375132663451212  0.6697594749758776
  0.3648843386260529  0.6661515522263930  0.3476230599713902
  0.3244003861667704  0.6778266942577615  0.0219432252512171
  0.3116632106193071  0.3142074505173941  0.6642124070191751
  0.3310951547669881  0.3163103234374831  0.3668863419012861
  0.3489131278049436  0.3222352012396901  0.9987561261731105
  0.3487012271693488  0.0218084952132115  0.6596729399449107
  0.3532961997406326  0.0113167404490459  0.3138793614703863
  0.3271794261608727  0.0165115359977290  0.9480439868756395
  0.0026023140589471  0.6757111291616584  0.6711107565032460
  0.0090429120926763  0.6562989823794352  0.3262865404414772
  0.9891834730127339  0.6567940784575185  0.0129459375228351
  0.0023683007985140  0.3297593944332265  0.6626167555574446
  0.9941769561256891  0.3457666979972920  0.3316409990604186
  0.9859582622932845  0.3369069316154416  0.0115514922226317
  0.9963860168990665  0.9817449432506841  0.6601076317913727
  0.9662538209726900  0.0218334595291121  0.3206748780132249
  0.9889915924123516  0.9628695975794527  0.9905135506932288
  0.8146931537593433  0.8326734683300314  0.8596385981473518
  0.8312184883862196  0.8370654875413158  0.4878235487480521
  0.8405537761504505  0.8378194878159274  0.1636114062908366
  0.8313679605196961  0.5032816225258547  0.8152338766484171
  0.8437160915203982  0.4811207593215698  0.5062377301754012
  0.8231780859733192  0.4813477205296600  0.1886376851113181
  0.8216732432860709  0.1654129719537463  0.8272714845549251
  0.8343973218034205  0.1736266215571069  0.5142602380371107
  0.8376248186833622  0.1836275097033582  0.1676867587469694
  0.4995625365168918  0.8234925109484691  0.8475094932143928
  0.5117767417815321  0.8436940827389964  0.5067974409677394
  0.5203920775009058  0.8120652610821268  0.1608198360623597
  0.4719050096912721  0.5142551524030664  0.8346649301170797
  0.5005774247731184  0.4899115992930076  0.5055177376451343
  0.4975711401730563  0.4966026229928063  0.1778575135519515
  0.5050994021502911  0.1990857096524883  0.8079121712326658
  0.5232695780119677  0.1578210264266853  0.4966683962563418
  0.5072346431556223  0.1540959841013592  0.1478381792456572
  0.1745050182148436  0.8304457991338207  0.8110491427359949
  0.1697555938046615  0.8364070328341484  0.4873347279085085
  0.1723031179820560  0.8581285888552391  0.1771550107187760
  0.1762265995441738  0.5074202840417720  0.8381967153380856
  0.1675580153893844  0.5112487058613646  0.4869054206215679
  0.1597718815935747  0.5048643996272262  0.1691895974064259
  0.1392418516722528  0.1735441730197762  0.8332715842487896
  0.1641085876135367  0.1679839675475500  0.4967574641581968
  0.1794852094616498  0.1971092929103284  0.1711910644959826
  0.6608660047362622  0.8303523588076929  0.8702937102754323
  0.8190126231160259  0.6805501882694345  0.8750662923400966
  0.8106662319748440  0.8433285804581117  0.6818346128573944
  0.6551555781504759  0.8451808689334140  0.4849571817247220
  0.6706643646193184  0.5236061080209417  0.5014172943561948
  0.8365295264030067  0.8425370097230813  0.3216150504454181
  0.6844630068871375  0.8356159479240375  0.1743357079844943
  0.8559191228118969  0.6314921142380912  0.1832718500921853
  0.8488870500188137  0.8458109838536273  0.0029200559617949
  0.6751556540557612  0.5028057975029001  0.8285356009947056
  0.8475709503126779  0.3393496795519267  0.7997872352838231
  0.8392304700413464  0.5244946817981740  0.6485070638851026
  0.8561044650185747  0.3255914417232220  0.5249889526404513
  0.0036949176121369  0.1846213050610091  0.5057153064456124
  0.8060764010506217  0.4682934834942984  0.3504176868483172
  0.6549204388895790  0.5025477434999804  0.1633660849493412
  0.8024535236572642  0.3312132457466628  0.2010621513524509
  0.8431184458989519  0.4769815714953234  0.0221597817089543
  0.6597944773915381  0.1795377748053463  0.7855551562172504
  0.8178029190671966  0.9975302137564421  0.8665538300473653
  0.8591292109655667  0.1468556543595753  0.6672891362325223
  0.6644827688327197  0.1808980238510152  0.5185911242793948
  0.8455790681439231  0.0025816466730415  0.4948735160923262
  0.8125656454673092  0.1548620490281311  0.3282765400386700
  0.6765445465289583  0.1839619394321184  0.1596977221979228
  0.8256153886221683  0.9898253167822956  0.1771134929308886
  0.8306176039319786  0.2227609296153561  0.9948459681063682
  0.3473476784590241  0.8583978978021204  0.8372406118970833
  0.4660378640836311  0.6611256934371813  0.8312269091054808
  0.5204682710424017  0.8357498736600991  0.6834917616568146
  0.1579979222651424  0.8423169310346799  0.6475537539373857
  0.4751786194531288  0.6822071751272147  0.4962631777883121
  0.4865582584773887  0.8404494200452425  0.3208547749322668
  0.1622963898154217  0.7997045796043452  0.3344627916474112
  0.4975542982425237  0.6680996291815993  0.1949830443811001
  0.5171274150146447  0.7876462431679507  0.0253795155115412
  0.3322886241664337  0.4879410124498781  0.8572520642025599
  0.5153442351340999  0.3478598341762918  0.7990978497234664
  0.4989780486536741  0.5310956254608695  0.6631001513520570
  0.3337147632167701  0.4919726305419296  0.5080581971184953
  0.5201798529820316  0.3190726227145776  0.5003722039841576
  0.5034285692823132  0.4674272171779397  0.3457451037461899
  0.3385267780707104  0.4904384359324793  0.1534783737665606
  0.5081470223538957  0.3396700001153249  0.1514897101878955
  0.5280276258144658  0.5058985589385812  0.9814568816224105
  0.3264415390794149  0.1841960260723570  0.7969794911340777
  0.4970731291454577  0.0097630217506548  0.8132478243786928
  0.5118204255388511  0.1782624843924240  0.6665456621644935
  0.3307822430336079  0.1259061551059268  0.4696805385964411
  0.5020724699911626  0.9970472294580667  0.5293431989642672
  0.5264971963481392  0.1530317542517756  0.3355803104178206
  0.3393534901415634  0.1539310769053454  0.1747770394381852
  0.5145896275783394  0.0073807944413447  0.1346785991736471
  0.5200682751922534  0.1680789058338454  0.9888147215316970
  0.0236049111928932  0.8098210738386630  0.8449211799864897
  0.1929850491614505  0.6940651897552553  0.8655765122515577
  0.1413872140300675  0.0131407458270896  0.4709591892983880
  0.8301471738328100  0.6729510363394052  0.4886874264252247
  0.1302429774218690  0.6783870933020686  0.5087006600887386
  0.0049173491883341  0.8644073901110896  0.1673299203438108
  0.1560049267476145  0.0185325927221050  0.1413380240109924
  0.1597709909145562  0.6696780743441076  0.1429492218701374
  0.3057704175044728  0.8512300369441186  0.0692299360810402
  0.9972923707296897  0.5191707289356179  0.8433506699643286
  0.1621394987305748  0.3360249772027334  0.8218444963240868
  0.1334770835449824  0.5253393693910378  0.6769047044897263
  0.0057536452311123  0.4917371269123433  0.4769218399880635
  0.1869848280113562  0.1850354910473393  0.3288410888374953
  0.1975326740458164  0.5210456892404832  0.3330428873502046
  0.9846436542214709  0.4444658359630290  0.1793991979622397
  0.2099501160683256  0.3475447362307753  0.1587287747606190
  0.1478299305893883  0.5254198543859866  0.0021598114452855
  0.9713987701255608  0.1381540239889272  0.8441879082417646
  0.1598586519484159  0.9803862351809310  0.8249162053466024
  0.1668541056882137  0.1530674218979275  0.6694326767468900
  0.1667113946181962  0.3460870995315101  0.5172803281619605
  0.3232421998020823  0.8379562275308922  0.4606257742376433
  0.0176612911762248  0.8568175905536676  0.4947193476512973
  0.9891235849700890  0.1641279245570299  0.2014709122938499
  0.1670916740737066  0.2207646750223284  0.9926607949900209
