Cl O  Li
 1.0000000000000000
    11.7780000000000005    0.0000000000000000    0.0000000000000000
     0.0000000000000000   11.7780000000000005    0.0000000000000000
     0.0000000000000000    0.0000000000000000   11.7780000000000005
 Cl  O   Li 
  27  27  80
Direct
  0.7105146557665087  0.6596123991277462  0.6553233385626370
  0.6724071158995344  0.6724446951458494  0.3158692692161590
  0.6800577247855898  0.6714913042273127  0.9996891256026522
  0.6723732700968295  0.3477318696239796  0.6644233656097410
  0.6759951353549386  0.3264238113372502  0.3386803483466895
  0.6634658726301917  0.3293607849155052  0.0117676759614173
  0.6503039444044054  0.0040976507051700  0.6859275959503058
  0.6442397158212053  0.0157414854955535  0.3206335720144918
  0.6450383310175644  0.0038192540489276  0.9869550310581433
  0.3169752770955378  0.6411414571556694  0.6616831916091752
  0.3353429610295777  0.6514951958922008  0.3297154008698305
  0.3328283312477546  0.6878528348855960  0.9967227662589228
  0.3118173144137112  0.3466883176975197  0.6734508023168333
  0.3261089880037069  0.3270576509151776  0.3510734991232383
  0.3404488189888191  0.3517574149045410  0.0073032315146835
  0.3316230401086083  0.9793205273210216  0.6788834585050623
  0.3364896090524345  0.9839153872922588  0.3373175892056048
  0.3238513798468501  0.0128543469265891  0.9990659948900908
  0.0054829318235713  0.6871960805656462  0.6627515610919247
  0.9946676442317632  0.6798638489433119  0.3460897451603580
  0.0080557144686730  0.6448048199589609  0.9888877450654486
  0.9941281337612285  0.3465648776826309  0.6811233542950729
  0.9916354913525068  0.3110463595382335  0.3438583513064335
  0.0023703938977219  0.3506034187797812  0.0000952082206867
  0.0025964505099339  0.0150457791505707  0.6591371856346534
  0.9832356550421204  0.0083499870285831  0.3331707698795859
  0.9811336259897947  0.0059500188861230  0.0160836015795616
  0.8436011292803808  0.8531283671590050  0.8114756051636397
  0.8405767881874883  0.8459088469179272  0.4945405127150183
  0.8313536450087748  0.8204427143612174  0.1751585023326884
  0.8542568082042002  0.5028059692730290  0.8286486253786411
  0.8383525197657119  0.4985955271252988  0.4720601386555339
  0.8280842862149612  0.5012961468803590  0.1802543199102662
  0.8288344808610389  0.1718901716681152  0.8268819230599393
  0.8498620359850405  0.1639944742316716  0.4812902048393461
  0.8086648925443599  0.1564546739126057  0.1606477621895397
  0.5116513343057517  0.8100398263370261  0.8237800928924329
  0.5098469400704015  0.8242473712451788  0.4977535158182037
  0.5216251579554620  0.8302263375550577  0.1646240772116214
  0.5040037213400315  0.5237150640875634  0.8536490947502896
  0.5269862359389277  0.4911527703338447  0.4900120171868463
  0.5030167275312494  0.4948207889592786  0.1774794701560920
  0.4873766063925807  0.1751286400941491  0.8386137041798056
  0.4988876205720767  0.1634464131160420  0.5100383276377689
  0.4910309409494570  0.1735217944165720  0.1786256728394396
  0.1680868723808429  0.8410982895387447  0.8346990889224636
  0.1664618689969104  0.8215746864229730  0.4867761803124581
  0.1565957264162721  0.8305739452847514  0.1608440556996049
  0.1723023245980526  0.5062431805764290  0.8361987494772402
  0.1482956404627023  0.4923943364002920  0.4935833971387677
  0.1541190719489671  0.4808211366311373  0.1808161966720357
  0.1751575378909457  0.1601205771753706  0.8095625076026167
  0.1643856051125006  0.1537206840584074  0.4990416401060750
  0.1833959544438335  0.1504056880862458  0.1872618383022243
  0.6722468746470154  0.8183507522591057  0.8274636174298716
  0.8616253957246554  0.6855426564239400  0.8144290158183279
  0.8589546542021266  0.8452254531982406  0.6631540265520789
  0.6733449199352465  0.8513074953618116  0.4880151553126695
  0.8367610383012050  0.6823592886408264  0.4887940136289806
  0.8387721915250882  0.8164900428185372  0.3387099229386464
  0.6714196362658331  0.7921274615658092  0.1542563710086627
  0.8376292884026504  0.6601893971901260  0.1789074108071706
  0.8387513010535622  0.8215967914567970  0.9860963367786115
  0.6830683818099247  0.4929895933825520  0.8546370197235000
  0.8638301501788431  0.3349474071177133  0.8399599250309325
  0.8427343366536931  0.4913623228156633  0.6755917517649652
  0.6876637187498978  0.5311432866168512  0.5007099223932270
  0.8429229176931657  0.3344040726736935  0.4789005130325794
  0.8421987146802656  0.4857328670497449  0.3300503771516248
  0.6638430751945471  0.5048300373426813  0.2124862324762181
  0.8043300387319022  0.3186591348087056  0.1696584784223292
  0.8656400099445345  0.5208766724824977  0.9989879410756378
  0.6628313448002954  0.1963834398241102  0.8286081399687070
  0.8494597729519359  0.0111776816292427  0.8477467268360060
  0.8686931766493003  0.1594554828609742  0.6710330541209824
  0.6819543852701797  0.1552263162111494  0.5349517938634692
  0.8980067996536817  0.0029783594329070  0.5034155218537089
  0.8132590958928549  0.1784210553289200  0.3237252808295147
  0.6439958317117627  0.1466990666224398  0.1183940203990480
  0.8068950323636834  0.9864868130435431  0.1933254798469803
  0.7978445189729287  0.1258134027389047  0.9988605850462144
  0.3559579293409412  0.8326117379083712  0.7991528990003763
  0.5099532142714783  0.6719932018542650  0.8838175267000185
  0.5138590441948648  0.8414709172517776  0.6717783095470481
  0.3520787793027013  0.8098380470539148  0.4839083962997804
  0.5215451587854325  0.6643879771127457  0.4851083838502254
  0.4959044936264968  0.7902082102224762  0.3235459102208019
  0.3428204138173452  0.8283443327888638  0.1568747244107368
  0.4973748832298912  0.6564276953261047  0.1590350360061697
  0.5152112568866617  0.8393738539880143  0.0015410130984352
  0.3358373081275772  0.5186154003960418  0.8320453512721070
  0.4826065749087421  0.3317592013281127  0.8377344420468583
  0.5110161587092966  0.4776274450684905  0.6923656668088366
  0.3304012309222089  0.5021311989456584  0.5008830784915148
  0.5279713674188526  0.3268835636524611  0.5176833495372534
  0.5129845188548797  0.4882752293373729  0.3305284693575358
  0.3287298110157870  0.4679648732503530  0.1939418702132261
  0.5264349461118558  0.3232216178385173  0.1751652431534424
  0.4791113075274968  0.4897426635058421  0.0153712822996462
  0.3278441926734799  0.1439661293888998  0.8245747405186185
  0.4974133848547385  0.9866403020887865  0.8566348127621052
  0.4873083479914319  0.1527582142866930  0.6668940282363757
  0.3492979174651519  0.1640554250163273  0.5068691702335422
  0.5084218536407233  0.0050287436516010  0.4610545443336544
  0.4960750181731390  0.1783565215854852  0.3491059486858539
  0.3286409252982768  0.1607691635638664  0.1444147828291494
  0.4847608845421523  0.9897658687256203  0.1656887726434192
  0.4569074083324518  0.1549134550845317  0.9900435680943317
  0.0083783218251478  0.8365424663588673  0.8105831447870537
  0.2043302919114618  0.6916587873026753  0.8350832144919176
  0.1842549536291090  0.8164170071390162  0.6446732871107982
  0.0037617186584378  0.8379857712230157  0.5028555681489113
  0.1673973248788464  0.6755279829956060  0.4709358993070756
  0.1430747533324858  0.8335597442673867  0.3353613139548871
  0.9970487793838818  0.8129189057790752  0.1550083571341300
  0.1920476663040329  0.6648363530277650  0.1670095484144024
  0.1441236290903520  0.8574246788612053  0.9891116837846535
  0.9973001852396811  0.4640826058355481  0.8541524093665898
  0.1644009895682756  0.3277933922699089  0.8319312633869128
  0.1660738062213402  0.5216165028636324  0.6491909325491081
  0.9861974221384527  0.4668645607791656  0.5274819928181793
  0.1630197589589084  0.3226496602096741  0.4903205564959535
  0.1936715765818972  0.4684862038740736  0.3458480067776418
  0.9771000304385018  0.5177662998934952  0.1966590889863591
  0.1463864598650903  0.3349701194326864  0.1672141211907991
  0.1551856600736794  0.4762265284285429  0.9886176479182428
  0.0172615495020551  0.1807072461851902  0.8899168156482213
  0.1277178377576582  0.0082299028746270  0.8254089828757193
  0.1230368539329696  0.1827712733544475  0.6751999339676236
  0.0147228435530118  0.1618730488724804  0.4640655252412689
  0.1970792335360454  0.0068366835232431  0.5382472657466901
  0.1671319632594337  0.1855979646760422  0.3337185577186984
  0.0018952596570741  0.1527031440078302  0.1643831991438663
  0.1715553080566546  0.9839579222760709  0.1646671739304962
