Cl O  Li
 1.0000000000000000
    11.7780000000000005    0.0000000000000000    0.0000000000000000
     0.0000000000000000   11.7780000000000005    0.0000000000000000
     0.0000000000000000    0.0000000000000000   11.7780000000000005
 Cl  O   Li 
  27  27  80
Direct
  0.6771718596722505  0.6820418235200680  0.6657008365100560
  0.6667902669736845  0.6704722269523975  0.3360882642509191
  0.6568168076926635  0.6756437927319618  0.0038063548069104
  0.6587784472601974  0.3105748474326764  0.6528441682751724
  0.6424595477385747  0.3264743990782024  0.3363243144335394
  0.6820633878713012  0.3356817731897465  0.0301675995345570
  0.6887308490625182  0.0028491925863366  0.6713138551995411
  0.6586501894815264  0.0030798865175935  0.3152934799913334
  0.6826684828081752  0.0218448899947805  0.0042334040833703
  0.3258974878570854  0.6555513291212071  0.6201394468493059
  0.3600371336672442  0.6656317508552737  0.3455107171027377
  0.3164256832905571  0.6558450102848685  0.9837745231582081
  0.3244359240730567  0.3156326289676211  0.6724440054178500
  0.3358948942580824  0.3241096260412501  0.3436545015426719
  0.3599450698450542  0.3368897161232435  0.9852609614311342
  0.3233559960057710  0.0077032167463440  0.7073411332478748
  0.3435210297138327  0.0142977580210093  0.3179378250265852
  0.3099319247506619  0.9865526308896450  0.9802079141588136
  0.9956685508513762  0.6764333391964955  0.6540463420377539
  0.0298848934240246  0.6759667043615959  0.3280927804003405
  0.9872081663963875  0.6437245692296356  0.9961812691251881
  0.9848649252716748  0.3180637171060453  0.6422022543907305
  0.0040233509387182  0.3190505894585975  0.3168041930630221
  0.9815331645442933  0.3517508372466664  0.0042144749401803
  0.9931323812500069  0.9961575831132630  0.6699121288513948
  0.9816432734727923  0.9938384807816389  0.3371956819115498
  0.9986110324222089  0.9803163507007467  0.0123397594430991
  0.8492814101133452  0.8435178000711675  0.8464931308780648
  0.8261067517589021  0.8512207161068576  0.5064469016831865
  0.8304255733490257  0.8299427182370044  0.1765362151080002
  0.8393435375076564  0.5040936696853358  0.8144908717999636
  0.8271698986237699  0.5252604946195101  0.4910442274737809
  0.8279903759414933  0.5135827210364958  0.1870011672656204
  0.8319007807162022  0.1714030726797335  0.8355621511666937
  0.8189465021579676  0.1523220257013033  0.5075993188769590
  0.8222429052056170  0.1604518907488054  0.1691539333976351
  0.5191156452128697  0.8454559985863496  0.8576439463653776
  0.5066350864362733  0.8572370909355157  0.5109961257412448
  0.4977670407880913  0.8213517952198209  0.1606315623008225
  0.5178993015568113  0.4959280054140993  0.8281895960760653
  0.4990562176966210  0.4857340625905776  0.5025228938107396
  0.4990392543098586  0.4935077471228325  0.1584360486414520
  0.4947648452144325  0.1675741245498117  0.8364397938832441
  0.5037968162874373  0.1584740165318878  0.4905940702007244
  0.5032357289911615  0.1784056316089747  0.1633727889220464
  0.1724880875364088  0.8079971159573387  0.8304510301041611
  0.1566909032499010  0.8522815957887692  0.5134122950061084
  0.1818650752728716  0.8398689310446323  0.1828499552726237
  0.1764463663083649  0.5156648451839937  0.8356290330639048
  0.1733079575729831  0.4914993064214148  0.4866539086497138
  0.1707907772103341  0.4960275590371272  0.1621033284081546
  0.1408847109596828  0.1858609793629183  0.8370201117492384
  0.1654670875029426  0.1754215734989664  0.5127585366064934
  0.1771966419252625  0.1337358420098493  0.1629348683641424
  0.6886992704427697  0.8749965018280015  0.8535758914043855
  0.8072108344387476  0.6727571020328450  0.8388935336085264
  0.8383823329050023  0.8699318580160731  0.6879870020580870
  0.6782317272189138  0.8624448911569709  0.5267913059999608
  0.8380327818756318  0.6961597337306268  0.4977019316812041
  0.8158317166592823  0.8425591865347491  0.3349067178046991
  0.6602147886338374  0.8216384319221539  0.1707811229937040
  0.8303541570859020  0.6743865588118703  0.1747104445762048
  0.8604896339119447  0.8276037951342948  0.9924844618940761
  0.6793300559050144  0.4696937431747109  0.8359817419552503
  0.8652988957580093  0.3333246721379768  0.8277120301804836
  0.8260533919886091  0.5239373099666359  0.6468752423469573
  0.6522115923126663  0.4722412471094005  0.5198239693773622
  0.8359818719791932  0.3228221495199378  0.5051019358797677
  0.8075220862703207  0.5367198899013402  0.3342983030642103
  0.6348435538780127  0.4694521262482246  0.1711314533672158
  0.8315176267965866  0.3291962736734778  0.1833627029894384
  0.8232244334840579  0.5085158910124309  0.0205902798683881
  0.6804799225179609  0.1913519547841573  0.8550400867400598
  0.8420251291200473  0.0082335370288236  0.8312287548289938
  0.8170704892324441  0.1531001350375305  0.6769332705837958
  0.6616637614553766  0.1843175540800028  0.5090217737549915
  0.8323771320494863  0.0116481005408727  0.4463916542952300
  0.8199724834165161  0.1715131929947541  0.3267005073954138
  0.6568702079483664  0.1339154454096692  0.1640705752049645
  0.8452824232617007  0.9869545346147365  0.1622654117468255
  0.8399708994199941  0.1722179630108858  0.9864434807923617
  0.3054918493577858  0.8407526465726726  0.8527410822515454
  0.5510022374747892  0.6793394628923808  0.8428181082767122
  0.5223265025893283  0.8758143880794890  0.6672234522922654
  0.3509112364431924  0.8697330746532967  0.4958884687140285
  0.5495556937778459  0.6745456664729110  0.5447120107656241
  0.5083764853737660  0.7784013906165368  0.3359113834949172
  0.3336408893027096  0.8060028046639879  0.1815923164984327
  0.4971826338956933  0.6575361263432233  0.1623704713856044
  0.5048876146872903  0.8144245796384669  0.9994924031687927
  0.3288395018688772  0.4745615064381302  0.8337280811258621
  0.5037969377436673  0.3440905928330466  0.8077455166800334
  0.4921984750787137  0.4637246957902658  0.6532533138279658
  0.3391939693427874  0.4710538505214450  0.5156657129230371
  0.4735191951871165  0.3154664970879567  0.5115203308290708
  0.5143327393686720  0.5039712013202853  0.3283274945644331
  0.3487390322585914  0.5012251974206891  0.1346546759337371
  0.4944850100609685  0.3400793389021919  0.1762597402435606
  0.4976262730177506  0.5176967269377631  0.9839868501557762
  0.3054139149436627  0.1467676602494601  0.8688995380935997
  0.4790451297598334  0.0053178726930536  0.8486752135026898
  0.4703847337792031  0.1806352845902721  0.6651784532656770
  0.3262612897507527  0.1544231375060601  0.4502580109439308
  0.5136359044928873  0.0085796708365619  0.4603368942324201
  0.4990004288017318  0.1375810045464497  0.3178939793276266
  0.3384735517157161  0.1852605604908915  0.1811180501637604
  0.4810177003880498  0.9933054365901721  0.1750578701215538
  0.5081896452069204  0.1580167540693878  0.9836596091176175
  0.0012855277804130  0.8234993842751819  0.8343528519719642
  0.2349667915630170  0.6716892183750148  0.8087442917431062
  0.1316708794252542  0.8128976319173945  0.6957534801873737
  0.9898191413325013  0.8744884909041492  0.4952984343496499
  0.1381005698039288  0.6675882892611561  0.5067105831580869
  0.1512800079695115  0.8553346815227150  0.3519929170580968
  0.9861102033441453  0.8415875366963324  0.1744970459804425
  0.1854653820501909  0.6637369526995409  0.2023323847264924
  0.1588220957142388  0.8204235457408531  0.0008507138963878
  0.0198796859906010  0.5431304306811160  0.8127424688865523
  0.1354164579747693  0.3631013267757739  0.8242971668233670
  0.1741958430982465  0.4935746695054534  0.6513498517945071
  0.9775392446947356  0.4911415773392376  0.4863991744504088
  0.1744300511947149  0.3309290289759498  0.5006792287277533
  0.1710098640061922  0.4870494335593345  0.3331199549653751
  0.9831947098061985  0.5207143879380167  0.1896860179535113
  0.1677215276764721  0.3260229260293230  0.1395787847664322
  0.1470708613548992  0.5210171378335035  0.0080784113204685
  0.9867295466149782  0.1540993149547027  0.8442148549194366
  0.1486938505896875  0.1444288687243330  0.0113791935079085
  0.1521005966221121  0.1587424550424555  0.6972222908597805
  0.9791242092734125  0.1575209697393355  0.5290032263717072
  0.1722680695761223  0.0156371507547168  0.5403454163917781
  0.1348665952583977  0.1939351263649987  0.2982852961228786
  0.9966400472880446  0.1627341241562546  0.1545391659936609
  0.1602900359503322  0.9886115062904880  0.1979139487852261
