Cl O  Li
 1.0000000000000000
    11.7780000000000005    0.0000000000000000    0.0000000000000000
     0.0000000000000000   11.7780000000000005    0.0000000000000000
     0.0000000000000000    0.0000000000000000   11.7780000000000005
 Cl  O   Li 
  27  27  80
Direct
  0.6560082441337254  0.6503283850691747  0.6919777171743776
  0.6773296018776180  0.6678363815659704  0.3351425123631323
  0.6748104782152922  0.6583929977572156  0.9950418559115665
  0.6703212535347561  0.3139391827109334  0.6864483008564063
  0.6781266786283995  0.3460276959548990  0.3499102134031324
  0.6591754987236851  0.3218720963604589  0.0015271174179054
  0.6481558154791487  0.9848110272378406  0.6346881900806551
  0.6738961152319320  0.0050377989820058  0.3407449643606246
  0.6764371415010321  0.0112269462464341  0.0003259988853935
  0.3397698651046587  0.6730029271547029  0.6696015120746535
  0.3458906113201267  0.6901399153548627  0.2969039212242016
  0.3278961623802686  0.6979103610543229  0.0026022512851826
  0.3523983170837441  0.3463678948545747  0.6893234936991020
  0.3450848302062094  0.3058482747491403  0.3329517658607816
  0.3163451486157579  0.3336968724669436  0.9914889293992684
  0.3321305111625650  0.0080787590193841  0.6646071104489605
  0.3235444666372785  0.9805317662190680  0.3097878766253807
  0.3188161148829671  0.0075624175898533  0.9939186650719668
  0.0153781091262709  0.6767293662266717  0.6674509270989573
  0.9966617351104062  0.6360740390271382  0.3011654559592686
  0.0002691696920657  0.6798556495817781  0.0036544544376777
  0.9951130808837640  0.3518105509390574  0.6679559825878842
  0.9988744250212336  0.3243647223219829  0.3398775239673780
  0.0023475884756777  0.3331411899728940  0.0045867401222404
  0.0187018790458666  0.9748857519204865  0.6699556784407563
  0.9945874626020975  0.9970301214320227  0.3534205413568733
  0.9915754132592116  0.9907392172526479  0.9745143661334255
  0.8306100359249498  0.8491672533423315  0.8325599023958976
  0.8234324585685635  0.8432047241088859  0.5026945392371325
  0.8292511836259236  0.8436678771985313  0.1680368573763600
  0.8294498860178797  0.5097879403052967  0.8469414535959469
  0.8178135694946379  0.5184123447564956  0.5234746475356170
  0.8188626274368488  0.4905277757519658  0.1689355929914858
  0.8469368301015096  0.1820732228503427  0.8382881830474648
  0.8244748769035452  0.1800802678182246  0.5149063558625866
  0.8350035126109918  0.1679389362914656  0.1782258609798698
  0.5190961827789559  0.8352491791152071  0.8189720271721952
  0.4925923686802265  0.8262089490185757  0.5152887405594135
  0.5316320041401121  0.8487160839340266  0.1502127710415045
  0.5024636427865740  0.5183157870538029  0.8581030382023019
  0.4963932604210641  0.5043473489767206  0.4717799611823191
  0.4979809767424472  0.4934288387716094  0.1629582359766517
  0.4937972549652735  0.1428614636701225  0.8339619931127331
  0.5105338019757759  0.1784627542351299  0.4949042152013946
  0.4901856325158776  0.1717544432652893  0.1608905145137380
  0.1774830670061054  0.8284280353078805  0.8424330793165120
  0.1602021531736299  0.8111613318542916  0.4824130087619855
  0.1608656381929815  0.8151687396712028  0.1782090190493373
  0.1649981661692937  0.5206660460712939  0.8288810741660111
  0.1721847211653326  0.4758745269658493  0.5004974770108319
  0.1580055565295437  0.4988319406105866  0.1593393868815826
  0.1608853849516768  0.1556756627099853  0.8145651903008750
  0.1769199756820378  0.1604459269849309  0.5055525662660160
  0.1482995135024895  0.1623002903374922  0.1774002420150849
  0.6942885352448880  0.8309506002300506  0.8432418968361742
  0.8171411878064534  0.6972982216561204  0.8010280028104102
  0.8104232008236385  0.8521165344852064  0.6546883874421703
  0.6623319437091927  0.8548920522486446  0.5017532534561659
  0.8182793136505191  0.6814475359003848  0.5213457222542354
  0.8218956324074673  0.0284583487099859  0.1687735400168723
  0.8231552144813353  0.6608345918595178  0.1830600213530439
  0.8115039993272376  0.8389095459981637  0.3374636421281757
  0.8099739747150105  0.8223301228636152  0.0090987239290047
  0.6748621780837780  0.5056245017184999  0.8688582302637393
  0.8290736955887726  0.3487158057182894  0.8286063401741989
  0.8386036372039662  0.4810839466037020  0.6603361830987886
  0.6564023695994332  0.5136081840720826  0.5028917031835112
  0.8162556909203762  0.3520397793301039  0.4932360543704724
  0.8249718757958956  0.5145575264496259  0.3174995172669117
  0.6670396276617326  0.4889065375111573  0.1520726606525218
  0.8261145360058739  0.5066752600479281  0.0126139442915023
  0.9955819276238534  0.4944170876280993  0.1549631266161150
  0.6531228489677262  0.1638314384198452  0.8372103804642009
  0.8504665100811991  0.0193869349692652  0.8054528961745608
  0.8142973306710468  0.1893687139631617  0.6682458581230121
  0.6553229071143618  0.1587042142855110  0.5175526846829251
  0.8495615801983533  0.0131853292688065  0.4956776484727745
  0.8130563718857486  0.1749825069409701  0.3308714433140258
  0.6529322031723468  0.1696893735967263  0.1510107182285994
  0.9905267573978495  0.1828859876974735  0.2220482403423133
  0.8314516466266586  0.2035291136114462  0.0020803212876196
  0.3644710258406650  0.8190870795862588  0.8478480838660097
  0.5150967505878019  0.6776143368024198  0.8484492112327102
  0.5297360319074911  0.8128651198459558  0.6586702489654128
  0.3391697296305015  0.8236841169134492  0.5060364074001377
  0.4877737547044671  0.6724842280826280  0.4773350857355987
  0.6800172663014991  0.8581142050544750  0.1604065316806815
  0.3161248270148968  0.8453896407122060  0.1615660338211924
  0.5076659774776882  0.6665050593456994  0.1893521423087626
  0.5355033000088251  0.8643264482963937  0.9740609219511499
  0.3296884109926387  0.4987586620186059  0.8806326830056761
  0.5059987478111945  0.3412081913001210  0.8455581481093204
  0.4806895367033889  0.5295838078028747  0.7068942425812951
  0.3281135487889095  0.4908999986108994  0.5028430802061803
  0.5105172029577029  0.3446865357800140  0.4988416237445297
  0.5323968140191762  0.4562402367393180  0.3271173122216621
  0.3419709758719526  0.5096764839717483  0.1682222097043905
  0.5042567820779625  0.3550437967472097  0.1434222949322027
  0.5215055504949504  0.5263652581985286  0.9953476140627866
  0.3304678563473938  0.1779500672464302  0.8372003400825373
  0.4853354399203696  0.9900469306596356  0.7785191675077420
  0.4924005488079591  0.1757535718158688  0.6737359631079374
  0.3504686609900580  0.1604152896509634  0.5091948361707320
  0.4922248016434354  0.9909693875620601  0.5289435786511467
  0.4854120788013749  0.1665264408242769  0.3400634734552049
  0.3051536452914613  0.1748225086009107  0.1557119245155501
  0.5209522363973819  0.9818573382459591  0.2002526972345682
  0.4486724599652519  0.1403780785034159  0.0055751705304905
  0.9828381924177243  0.8268544483945640  0.8028504940240008
  0.1771711066798587  0.6703560720240351  0.8606443073838617
  0.1734121578237129  0.8172381918853910  0.6964114363578939
  0.0117679947583951  0.8183617429818807  0.4900495287253840
  0.1796377207655001  0.6557197866246810  0.5059424002782710
  0.1806675278952872  0.8356064223724651  0.3428437280116053
  0.0039543194973087  0.8373320724854938  0.1299015445181710
  0.1602287925733665  0.6459983490204994  0.1683580382547192
  0.1515502894931433  0.8155951320086280  0.0056408347024809
  0.9951386132605727  0.5419596713093818  0.8355527458398616
  0.1511902021358374  0.3275747699902430  0.8183798875665000
  0.1826601185587158  0.4955748488959831  0.6787142920258866
  0.9856389654859469  0.4679461881676464  0.4994024681283459
  0.1529737261423667  0.3161470140562764  0.5196196268016976
  0.1467530518138290  0.4629971706864894  0.3105498322830443
  0.1584909664733003  0.3081655381575350  0.1581457150550874
  0.1616003674124644  0.1472124003116763  0.9900731406970151
  0.1425311016883250  0.5005147976453147  0.0043089725713134
  0.0040167897500060  0.1662494902562706  0.8207842350916627
  0.1906637197339862  0.9802078981216242  0.8294315947702942
  0.1613413721237639  0.1173381049864708  0.6528054110261381
  0.9800377698013315  0.1813200727693397  0.5265233608452898
  0.1494579529009896  0.9927332976526453  0.4954383392146544
  0.1820388901859830  0.1788406855368642  0.3330452061869092
  0.8408889173814257  0.3284462791671881  0.1857109047820000
  0.1547861972169987  0.9863773862403148  0.1845875965979701
