Cl O  Li
 1.0000000000000000
    11.7780000000000005    0.0000000000000000    0.0000000000000000
     0.0000000000000000   11.7780000000000005    0.0000000000000000
     0.0000000000000000    0.0000000000000000   11.7780000000000005
 Cl  O   Li 
  27  27  80
Direct
  0.6524343837753958  0.6539231779527226  0.6603711892035605
  0.6426763068752237  0.6936573001346167  0.3449362836200450
  0.6472751660458612  0.6885010783254175  0.0178345013546327
  0.6757238182670019  0.3357750616516574  0.6625894657846665
  0.6780065881061329  0.3256111387596018  0.3235738129423643
  0.6702439965761998  0.3200781799682613  0.0116637771657702
  0.6410862019146545  0.0165860819083859  0.6709334682866622
  0.6693263947600447  0.9780795621220191  0.3337059143022118
  0.6684108576997964  0.9874207911201576  0.0251540850818696
  0.3481831273466494  0.6615893737216026  0.6598202637451782
  0.3296195749993486  0.6630425975111850  0.3288844258623471
  0.3337930539678091  0.6813782372432621  0.9949288913222444
  0.3532720624045383  0.3311491987125940  0.6468835153694450
  0.3631384782616938  0.3218814001267233  0.3092129295440864
  0.3491544533017868  0.3008720229517823  0.9944183285523971
  0.3465198652503292  0.0066695628260990  0.6744777230139278
  0.3517862883453690  0.0055120596527036  0.3272244430842315
  0.3328015460358194  0.9970699243125350  0.9756245002540678
  0.0128114650389852  0.6677180145920079  0.6729781839153810
  0.0240845186305795  0.6785374569990105  0.3470277598972375
  0.0035272989609797  0.6473855534711640  0.0102249497349266
  0.9778755496559056  0.3442523016377461  0.6715923683333388
  0.9637691347714301  0.3492494157859047  0.3116397262290576
  0.9911492296322161  0.3401434778689503  0.9917140537239214
  0.0255186940347879  0.0046310917555704  0.6636409123660635
  0.9781881729307401  0.9945824937677579  0.3147356050413037
  0.9990899962651727  0.0129273939047727  0.0070112976000133
  0.8405828771284194  0.8411665389958511  0.8519881081110438
  0.8296513306213094  0.8445537103325725  0.5184451717701000
  0.8242866899217696  0.8304061648019421  0.1539832950714229
  0.8043641435765079  0.4811096267182848  0.8364801718358095
  0.8246228807658620  0.5007318118072458  0.4803301421022879
  0.8194852822452323  0.5192525913189514  0.1549903797648846
  0.8221952136445770  0.1604604634904294  0.8337159090163331
  0.8304897024902235  0.1625024868393874  0.5017186246558513
  0.8317159245863058  0.1604918396831282  0.1708968341728044
  0.5071069846263266  0.8384081870462251  0.8513385601940618
  0.4786761864709668  0.8426747014867139  0.5008517105729337
  0.4816810945670912  0.8529081175849215  0.1688832720670300
  0.5052040489031969  0.4941590055044545  0.8380191032382224
  0.5094590654872647  0.4964041643977566  0.4898402863520238
  0.5038055209024355  0.5029664444939652  0.1652876818399680
  0.5104441969671896  0.1569476861693875  0.8463301101311217
  0.5085398037693024  0.1771888729335350  0.5066712048530824
  0.5117296087325953  0.1656900246197242  0.1745778688575322
  0.1686247979093728  0.8327418490718567  0.8325240185478749
  0.1675458819773356  0.8394716577943725  0.5032713615830515
  0.1710749040691135  0.8333271061578633  0.1619523723133719
  0.1939113270662628  0.5000865958291271  0.8381956196255348
  0.1561118001980668  0.4945068156611978  0.5018621049486576
  0.1838449335267383  0.4748914726065156  0.1497130660945725
  0.1664471585584882  0.1659463984781316  0.8370295588486144
  0.1575986977273618  0.1502902451171289  0.4884433372822497
  0.1613337197062366  0.1724914722751182  0.1898577508186078
  0.6820114048568080  0.8817664416691846  0.8425705539938269
  0.8331555857635603  0.6806426983155804  0.8543867876788156
  0.8140610470222694  0.8460631683565533  0.6893376498177579
  0.6444761262592515  0.8244067128746365  0.5374600757100504
  0.0326140832357574  0.4992451065836481  0.1447658299714527
  0.8334550158554325  0.6628019522345371  0.4782197996240662
  0.6527715462693264  0.8385926385738844  0.1695565646769380
  0.8639750231050285  0.6812737848856324  0.1378065904308408
  0.8222060637344394  0.8366271528924066  0.0080008653952487
  0.6429435510661984  0.4774190982049275  0.8911243822444418
  0.8389521248162765  0.3311548464272799  0.8463656563210440
  0.8044334545983149  0.4975112379324029  0.6658020640337524
  0.6731494725055261  0.5166806746820716  0.4699619905598200
  0.8197463321684868  0.3325817749431100  0.4566004692630590
  0.8332582567631530  0.8499332496629680  0.6909339085606371
  0.6546071547557358  0.5239582914864046  0.1509821723611273
  0.8140523021737237  0.3131107623748428  0.1757886052843146
  0.8604223474124965  0.5115426308219325  0.9899952861305816
  0.6734573640480744  0.1844000126947564  0.8557615912293557
  0.8640987465177870  0.0021405647095177  0.8250231247077557
  0.8031226989662906  0.1564850593900712  0.6515346412043073
  0.6593627734336377  0.1957127900645104  0.5234469822258109
  0.8377144048637728  0.0054754519859398  0.5009823165053809
  0.8336383337916138  0.1568716849335888  0.3330693419591139
  0.6664773554921665  0.1436605264493228  0.1844761467323056
  0.8623944727012034  0.0124627681583409  0.1485818834983105
  0.8244293605063773  0.1422800954268018  0.9954999949619717
  0.3510516400967059  0.8717182868068353  0.8410942130351722
  0.5364546963458726  0.6699224046775064  0.8324933306071449
  0.4739694741682652  0.8224943440509922  0.6531702112802326
  0.3224830498486356  0.8279054620011362  0.4837167061578604
  0.5005921534305607  0.6779590014618728  0.4839832216114562
  0.5105214836147538  0.8563956927382794  0.3264439855942282
  0.1842831476038643  0.8130160618188744  0.9908261365694314
  0.4924409424506709  0.6813997754813470  0.1720161950293657
  0.4970363603614640  0.8288529825352325  0.9988819876454366
  0.3512258083302421  0.5083004377381848  0.8222442871407030
  0.5012229566027432  0.3197970897670891  0.8215486668272163
  0.5124500466023716  0.4571225476426951  0.6357271938663812
  0.3409527165302993  0.5089367469261181  0.4949539579953824
  0.5083255954653414  0.3505089168889527  0.4958624101088924
  0.4956279539206787  0.4957737660796737  0.3235310603494739
  0.3426272740559911  0.4510780354541331  0.1666134474377255
  0.5292093464132569  0.3476643715015771  0.2109683617610889
  0.4776326750299170  0.5149891132842075  0.9859256724813070
  0.3206105793964812  0.1486570434376848  0.8487945380046268
  0.5049302055904032  0.0062472620454152  0.8375337641439331
  0.4866548891191278  0.2102809385189456  0.6570619927663721
  0.1300625967674868  0.3424388386705707  0.5086538158629624
  0.4983224198934287  0.0193085232994004  0.5056537255306202
  0.4978146923674460  0.1653583175347822  0.3239633635567497
  0.3415498358414166  0.1770818497523744  0.1744087208148278
  0.4773502083248071  0.9959961955736457  0.1237447423916883
  0.5564514119621335  0.1692430646809455  0.0247301319903928
  0.0235586435195938  0.8416237002448261  0.8195442341813821
  0.1662735672420435  0.6634599211167851  0.8066653394564446
  0.1564176371060610  0.8530158087753460  0.6702101559527807
  0.9837715866642109  0.8289886896293316  0.5199947508353254
  0.1506651967861155  0.6660314733849756  0.4956356918132618
  0.1835788026845368  0.8085804803065010  0.3351547859102262
  0.8143144150819016  0.8435470810999726  0.3268803170997922
  0.3285130480177363  0.8163826665673495  0.1645603108437405
  0.9783084879780498  0.8482909994944038  0.1726071808008779
  0.9929952814566348  0.5104504154327321  0.8490785026699041
  0.1636802743087185  0.3195970108711951  0.8838194377884033
  0.1875074258937163  0.4835745809021189  0.6864756552187006
  0.9945433435841566  0.5231473687254258  0.4887099337066654
  0.1922143001380577  0.1735979587713205  0.6867186486491247
  0.1835804828290491  0.5770197247936656  0.2492823772187267
  0.8357105088925326  0.5028641783484717  0.3104438074623110
  0.1461217925057352  0.1570897393514935  0.3352203115462045
  0.2232587149025294  0.5115693511924891  0.9886952439501610
  0.1519014390211564  0.3289979457276340  0.1601792426929310
  0.1591189147490325  0.0212329403280073  0.8903545926599561
  0.0182283028184516  0.1623543304817339  0.7916738350703291
  0.0038021057000130  0.1742336809208097  0.4897164819684455
  0.2041427998647935  0.0012852320632524  0.4666953442884721
  0.3301496302289100  0.1965917283141785  0.4970468512619227
  0.9893576699043993  0.1798203436084278  0.1683312636239318
  0.1652854297204309  0.0060331081437238  0.1724929309740440
