Cl O  Li
 1.0000000000000000
    11.7780000000000005    0.0000000000000000    0.0000000000000000
     0.0000000000000000   11.7780000000000005    0.0000000000000000
     0.0000000000000000    0.0000000000000000   11.7780000000000005
 Cl  O   Li 
  27  27  80
Direct
  0.6727626992374134  0.6555335003529500  0.6610999463272108
  0.6328958253963454  0.6862956508393616  0.3337148813226447
  0.6784628020436665  0.6577216557890651  0.0252514874196272
  0.6320505710077425  0.3072207577306898  0.6518070467871812
  0.6604739198476745  0.3470572270288972  0.3480869184513595
  0.6839355387877302  0.3720174539030715  0.9913594345620119
  0.6712883825492554  0.9927945227300534  0.6423201816481574
  0.6665902531534595  0.9868584779131344  0.3572081598532690
  0.6474309782416844  0.9893663415708223  0.9823758568381532
  0.3191568333922618  0.6997899237952966  0.6623601761676378
  0.3432062397564449  0.6860788919545749  0.3224488646013646
  0.3527907557042296  0.6606427186012159  0.9891616201927049
  0.3252112847489628  0.3546308731506682  0.6647227832351585
  0.3734485170938935  0.3249659582442889  0.3312662832444240
  0.3382669995017871  0.3523699249474916  0.0131165563831450
  0.3271101719310990  0.0007821277403079  0.6788419080080151
  0.3367150925254905  0.0220903429080008  0.3374278994812204
  0.3358363769455771  0.9943063434572545  0.0107995308265337
  0.0077420531050527  0.6751330540977580  0.7047547970633472
  0.9811738899775715  0.6594469010479943  0.3284703001062643
  0.0100001110295106  0.6466143216320215  0.9965832682709701
  0.0192446741530018  0.3560753116062947  0.6616390905313025
  0.0013360596591724  0.3080769634226799  0.3222270045549261
  0.0149076480452674  0.3369567042887983  0.9959759969270197
  0.9944874385938989  0.9773039401462368  0.6847356525299829
  0.0144109047170674  0.0008232231198752  0.3086977724475133
  0.9934669842263910  0.9863523609473656  0.9797306692003073
  0.8382708606763034  0.8274961292413943  0.8303332513049518
  0.8328017676191336  0.8313426480392274  0.4966323004090356
  0.8288794601339041  0.8124834914712934  0.1843884953219310
  0.8510087852038505  0.4924947060075769  0.8549974488616882
  0.8337734984283705  0.4994233790636885  0.5058581561102147
  0.8255257297457881  0.4888186307855660  0.1699099107156224
  0.8151550681079041  0.1635795455413162  0.8270762810465780
  0.8357524252659465  0.1680642560986446  0.5020289245824234
  0.8175948808521692  0.1490001826283292  0.1664356755048377
  0.5024676643841522  0.8557428807231939  0.8193493166773870
  0.4910464873292998  0.8454663881488167  0.4944102181993960
  0.5009707163518411  0.8299395856725533  0.1642360829404163
  0.5014413997277343  0.5185571481672053  0.7970454994906251
  0.4901728931537431  0.5022776004640385  0.4999740066304012
  0.4993627168400809  0.4922564088847052  0.1737408932373933
  0.4865342264505114  0.1725554949283248  0.8425395214292449
  0.4902490462098291  0.1600252301896819  0.5063817944023015
  0.5053314808266564  0.1485812396063318  0.1755352673337849
  0.1641630669178740  0.8260218125532363  0.8382801324209046
  0.1610442429995478  0.8410267580954498  0.4912185509072458
  0.1544932684540632  0.8308900211561648  0.1807937957738876
  0.1902475230191541  0.5052717394411202  0.8375215977803803
  0.1545102318408256  0.5085268878560468  0.4833483086722982
  0.1699883000048809  0.4899746916662325  0.1629454384357766
  0.1673210705916639  0.1732867221598485  0.8234615817060273
  0.1788444226998372  0.1705536938341362  0.5038082178636144
  0.1786457607932909  0.1590372546097091  0.1815652452601808
  0.6569881665377636  0.8395721173165199  0.8260319194119197
  0.8624668039817426  0.6503718939842295  0.8373678341934510
  0.8113733259659656  0.8438672144564221  0.6748178606876213
  0.6710223124351687  0.8436065693872667  0.5020090867315556
  0.8081159508534925  0.6651882584869703  0.4998995134761227
  0.8209780036478972  0.8043545069814572  0.3359415181409021
  0.6513810587181289  0.8115247159932353  0.1972665600959648
  0.8341700935040843  0.6563784308582734  0.1473018659159110
  0.7933020964461674  0.8212974890972132  0.9910506124876196
  0.7031802783998762  0.4990718847346413  0.8246177640429235
  0.8364010825039095  0.3256827726698761  0.8451956072333777
  0.8427783442767197  0.4934421050854433  0.6625722792302822
  0.6732756493812776  0.5272552765498941  0.5133372687997896
  0.7940605501158720  0.3236320449577822  0.5002185789918129
  0.8205682912993647  0.5050936441228204  0.3403606828195472
  0.6717048964466567  0.5349385571617664  0.1820739241932970
  0.7959678177778644  0.3281808641617411  0.1939051374799612
  0.8452229342993569  0.4978063108201031  0.0165260541582761
  0.6704567312583903  0.1617923272411304  0.8141611923651596
  0.8515888601573852  0.9888488001284377  0.8459998903871272
  0.8235441308711564  0.1449180083806225  0.6770512383266326
  0.6609852100897314  0.1745551502957870  0.4943213122391808
  0.8200768793935853  0.9883034591262880  0.4647687848307784
  0.8547605681424379  0.1682129488879798  0.3165513346935680
  0.6643691830790683  0.1605495061269753  0.1871802274920477
  0.8185819151463611  0.9884465478492700  0.1914106087041704
  0.8116231209452586  0.1640565952479214  0.0071920480103036
  0.3333239536185954  0.8700227325734891  0.8464185095258452
  0.4768457034846062  0.6809047755941847  0.8146296895289163
  0.4947470157389109  0.8143429863495637  0.6544649139493509
  0.3297203067949566  0.8434905382023959  0.5138325673049225
  0.5005076037476056  0.6809904427216050  0.4788740231080279
  0.4898641919029961  0.8566207663522039  0.3349057394131496
  0.3384943250785666  0.8371513327149239  0.1512854379477233
  0.4742629772432740  0.6677035360353523  0.1683654631761061
  0.5308951022504876  0.8226788512841628  0.0090004186720108
  0.3423773819588654  0.4970153878516317  0.8384303332917599
  0.5164832274783978  0.3341164098694657  0.8313125933712563
  0.4981954819862726  0.5059053361065879  0.6558190294554146
  0.3265651370998620  0.5332423399417598  0.5103705384452331
  0.4882026301938932  0.3414960701495377  0.5217753998798820
  0.5261578639486956  0.4675926566674779  0.3180169672612952
  0.3351274166895171  0.4656681827062633  0.1602960226029305
  0.5040440447907540  0.3006301783329374  0.1540923319038603
  0.5104119139484592  0.4992363364697933  0.0014764871312507
  0.3360161321656842  0.1843605748828767  0.8864131553206649
  0.4936313997827685  0.0185318094827190  0.8188104558711651
  0.4517256402120124  0.1639545922575927  0.6671438107492141
  0.3297515412887206  0.2036501723292296  0.4738099460918384
  0.5021317974233394  0.0081673092181595  0.5178947923668842
  0.4947658819399402  0.1627356676566510  0.3239219059991097
  0.3423023624942575  0.1468445572190962  0.1689652039175165
  0.5493517123874475  0.9718729438598152  0.1651420047158054
  0.5272636824356340  0.1406922931119946  0.0039868101985190
  0.0051706687880552  0.8195588026821859  0.8587075318280436
  0.1752242173435354  0.6686526759858459  0.8393829549875077
  0.1767741405347452  0.8209674520354310  0.6790019468334845
  0.9823442953450452  0.8022513709062037  0.5215838229200741
  0.1660489987688314  0.6777367112960260  0.4769872410634619
  0.1396702441013883  0.8246110579586748  0.3277817242541062
  0.0052607975341672  0.8342623748328507  0.1644841876538446
  0.2122111817916503  0.6436498989458310  0.1568079211392435
  0.1498940044293265  0.8301620934855508  0.0121223118904776
  0.0102876820591947  0.5117255186387055  0.8558102339515241
  0.1680728239260241  0.3472073064435227  0.8286552930048254
  0.1341603923577676  0.5298487719102687  0.6838439208907757
  0.9959834247814319  0.5034614748213295  0.5069421934466085
  0.1769129042772942  0.3463601492406529  0.4891168318213401
  0.1855328148479904  0.5064979615372024  0.3297452261504972
  0.9977553588904907  0.4537849456678338  0.1799989052352427
  0.2042589363588813  0.3189483688533329  0.1778947772674458
  0.1650600211749626  0.4813034860811500  0.0034802017145701
  0.0225428079519259  0.1353484720345134  0.8378634565818635
  0.1962077648269385  0.9885008640873728  0.8380391632609770
  0.2073586207996612  0.1657048170144511  0.6601770004369445
  0.0151850464831211  0.1908044553977332  0.5335852368701010
  0.1547994899734519  0.9841814902509542  0.5235116166849032
  0.1821779711111012  0.1463156659450704  0.3384787792668782
  0.0136073503006965  0.1899315494741453  0.1519898942019281
  0.1290684208941336  0.0036923698777772  0.1504350317907064
