Cl O  Li
 1.0000000000000000
    11.7780000000000005    0.0000000000000000    0.0000000000000000
     0.0000000000000000   11.7780000000000005    0.0000000000000000
     0.0000000000000000    0.0000000000000000   11.7780000000000005
 Cl  O   Li 
  27  27  80
Direct
  0.6687581037771070  0.6782598198190694  0.6506238611980302
  0.6407874627910574  0.6697937942915324  0.3216611000110395
  0.6428163486244920  0.6416376086717550  0.9993694824479626
  0.6459193123834764  0.3357375029526251  0.6563189438134517
  0.6500371239132777  0.3453074441528335  0.3617521213242071
  0.6803179433609835  0.3230169264232348  0.9822736139818744
  0.6739615720596994  0.0111152951647093  0.6634571288659720
  0.6710783631058367  0.9880830859902880  0.3556881761388768
  0.6764844203797390  0.9930489605840063  0.9660985439397185
  0.3349122960844468  0.6966948512325344  0.6627983097901153
  0.3662820920885584  0.6575380914817096  0.3402272434245761
  0.3326056600961599  0.6618690182094036  0.9952013543538972
  0.3497483364964157  0.3397437771780580  0.6579305465266959
  0.3135729020904285  0.3294734181432858  0.3390187741807499
  0.3303612096975316  0.3437592415915459  0.9999800422430569
  0.3324775237737187  0.9783302974967888  0.6535335476099897
  0.3174479226168552  0.0240327029010155  0.3515841296484531
  0.3486770520641509  0.9744204038503802  0.9709569272397237
  0.0346986065726744  0.6698199883517597  0.6645137980652502
  0.9871318847308879  0.6711257237929523  0.3418884002795796
  0.0174637271816320  0.6515696513784135  0.0180226611111123
  0.9766806103159801  0.3632313877512914  0.6866744588424857
  0.0024736937126954  0.3083302366885128  0.3179837697413206
  0.0033352192824385  0.3374519588498069  0.0085085056428703
  0.0190070348038248  0.9759021774449804  0.6617406284555885
  0.0172244723257815  0.0043272554547256  0.3474501644400882
  0.0194704497834657  0.0013467369714562  0.0193292910268307
  0.8481623558655270  0.8408698736732408  0.8498913889915686
  0.8356643478772491  0.8138627044728016  0.4948951934411672
  0.8385428605235595  0.8253425853720583  0.1670796167087150
  0.8255026719254449  0.5073863294286706  0.8379900549748985
  0.8536230279574304  0.4946346803471560  0.4991416676037387
  0.8231708742548838  0.5112341032742118  0.1635247446826942
  0.8380095867039083  0.1754613115249211  0.8250292987510743
  0.8381234316766427  0.1676526880838931  0.5153368841980132
  0.8142397928234345  0.1526938351808894  0.1522914199299358
  0.5151129771570894  0.8202181850950673  0.8171552104021830
  0.5040368572511050  0.8567724617245119  0.4866091660461970
  0.5093416605147622  0.8495238729591017  0.1751791379414716
  0.4960804620638177  0.4750559361030541  0.8460679468773978
  0.4862349771635981  0.5048041699830775  0.5036112973458666
  0.4792388149291266  0.4840803364044013  0.1623497467515310
  0.4731843028443107  0.1477426820943585  0.8126244881764646
  0.4886383935243325  0.1665617176210480  0.4975504695371012
  0.4983355398825537  0.1911380922022851  0.1597614132809230
  0.1547298334462746  0.8390644673026423  0.8356414963446247
  0.1855239066784192  0.8174437199522875  0.4868218359045804
  0.1698351018343047  0.8381248819088932  0.1680025524776288
  0.1613531655406637  0.4975056222218086  0.8467211384812736
  0.1647114505373973  0.4952821635082311  0.5169930208621848
  0.1723923222673784  0.4970849383271839  0.1798377333344666
  0.1627515619638429  0.1880191569490815  0.8361482927061792
  0.1444961137074926  0.1881056135419957  0.5011131856112967
  0.1652322649721413  0.1793665139244536  0.1680460742933079
  0.6839154768877221  0.8564247730239984  0.8424955952756380
  0.8070426205286405  0.7046656997111681  0.8640626589724204
  0.8772775193904119  0.8316285120600573  0.6783734518458397
  0.6913013111928091  0.8392202551600685  0.5272191900720141
  0.8044321212960934  0.6670560899009726  0.5000750182443581
  0.8360160851187560  0.8493110816444882  0.3319918835201383
  0.6730306505436761  0.8532031870139073  0.1805233132662896
  0.7945266370183517  0.6702320893394783  0.1381847849060436
  0.8326760387991977  0.8783017930192358  0.0168188400984142
  0.6660376866565891  0.4955755207886131  0.8287326611393807
  0.8565893129724776  0.3273282177271108  0.8648325295277259
  0.8232350031442195  0.4989390486459331  0.6593961993371281
  0.6491796024454647  0.5346861676575230  0.5264579429090244
  0.8257548150585141  0.3168842774972463  0.5000459497200254
  0.8154156510695589  0.5315255526747924  0.3179944578895432
  0.6674323280579969  0.5086332800546390  0.1525543726674574
  0.8277306650049349  0.3128098460841895  0.1796823098457298
  0.8121332559737465  0.5107623672776602  0.9962389315194691
  0.6583322200400731  0.1597259180953251  0.8001012982632076
  0.8430675099377877  0.9985512880509323  0.8156706913907218
  0.8594556799958079  0.1821141777258571  0.6641512512192911
  0.6699549739509870  0.1829813144785293  0.5293757264029706
  0.8628781546099918  0.0168219262433144  0.5003457846659969
  0.8344480042211908  0.0554892414262488  0.2536177573598173
  0.6578521440490753  0.1289984231198171  0.1580060974837653
  0.9831559350997523  0.1569290037927369  0.1698279383980298
  0.8090657574338642  0.1652487656555346  0.9856246394385392
  0.3446307377682934  0.8045109796321377  0.8225631704903522
  0.5259166707396279  0.6483927612608895  0.8288794612358016
  0.5032994559945663  0.8365351008316032  0.6617751220248523
  0.3427679635718183  0.8600728323423349  0.4963476075225509
  0.4903718168360684  0.6730080119570157  0.4946572606869848
  0.5255651764105805  0.8350909052884361  0.3427997268571950
  0.3284271406941627  0.8597835236029464  0.1448003842871353
  0.4980386198860974  0.6823328949708932  0.1792657959483284
  0.5369188642870727  0.8229701403499236  0.9682830708709681
  0.3267096483912358  0.5016401137405024  0.8455844701119654
  0.4909650900332417  0.3137946739235400  0.8439575234283562
  0.5182925797970791  0.4916647111598047  0.6674020272099447
  0.3236068668165960  0.4940631478151171  0.5336598115113710
  0.5047841369476674  0.3305015248858558  0.4936190528346363
  0.5149790514210277  0.4947654482212429  0.3321862134878217
  0.3314121906967143  0.5337539910937918  0.1761303021624619
  0.5021417352120926  0.3448957885046242  0.1749228045684741
  0.4713682892963094  0.4808771307704201  0.0060847276512773
  0.3301490661494772  0.1718243452089065  0.8509484630449462
  0.4753974377783550  0.9877401315523988  0.8014713245353757
  0.4446618052354503  0.1575163661200600  0.6497354088770277
  0.3260666186252534  0.1953623803602128  0.4719747024902898
  0.5084638963419823  0.0068529975326988  0.4924880929081288
  0.4829636345846980  0.1875635948737988  0.3229966327139436
  0.3295134654562177  0.2106160075329462  0.1552862471589865
  0.4818345774724574  0.9943236241056592  0.1632886945000737
  0.5004557608007993  0.1501548736676960  0.9869935270585527
  0.0122761089370288  0.8448215735660827  0.8205814096740811
  0.1522185538321235  0.6491325916420241  0.8687915977651759
  0.1828419709400436  0.8191791675345199  0.6678897549434201
  0.0001504364077308  0.7834290930880048  0.4857818466941948
  0.2184177152113828  0.6512506668335433  0.4916149845574914
  0.1849203097017125  0.8536699028196267  0.3285128103028665
  0.9946875572284016  0.8080366110708338  0.1601541419999881
  0.1700224683114795  0.6746104649676149  0.1717323720813271
  0.1502597988500473  0.8399770084425555  0.0060485703846990
  0.0039105125295095  0.5034022412078817  0.8399777266610200
  0.1621209106119479  0.3269740513610078  0.8248320538338757
  0.1743095088548050  0.5160033250498516  0.6844267898537675
  0.0041992108248264  0.5183249608825191  0.5059320829849255
  0.0988174175714585  0.3360318318828456  0.5008876818779641
  0.1807639965470641  0.4929982600776220  0.3470874961378991
  0.9723396836920324  0.4723980689408843  0.1637711793729627
  0.1623689748399663  0.2034664055948245  0.9962208734451772
  0.1489960062935463  0.4700670000077022  0.0073122535040763
  0.0030475543139516  0.1428684108012923  0.8666129159149855
  0.1729490168966765  0.0128831487872559  0.8358756639556834
  0.1515637832972603  0.1903323718164828  0.6670004119433990
  0.0010671113294029  0.1859744818057728  0.4755337748775912
  0.1804090609581724  0.0104652487711177  0.5163667925413251
  0.1329160314186492  0.1593737456356613  0.3316453891392178
  0.1578924929422069  0.3398117521813372  0.1979082746022957
  0.1492535441074892  0.9969513900492506  0.1791289957481613
