Cl O  Li
 1.0000000000000000
    11.7780000000000005    0.0000000000000000    0.0000000000000000
     0.0000000000000000   11.7780000000000005    0.0000000000000000
     0.0000000000000000    0.0000000000000000   11.7780000000000005
 Cl  O   Li 
  27  27  80
Direct
  0.6824252467976911  0.6853483017854599  0.6774243802898878
  0.6578099961015650  0.6445743118494097  0.3446703831323289
  0.6839009399897871  0.6578729997899532  0.9987714242986687
  0.6625898655400174  0.3378380609589121  0.7018622239196831
  0.6674232162049929  0.3374787529457475  0.3643263735385848
  0.6787719648614733  0.3319628182692842  0.0166812176137701
  0.6781656958477110  0.9991776271033713  0.6873065854569174
  0.6317326957964908  0.0019280110182545  0.3211289674492931
  0.6464450127957011  0.9713705927195414  0.0163527025503675
  0.3368114640286837  0.6963258397182550  0.6540998449478687
  0.3561569313407456  0.6586273644332542  0.3498104512629646
  0.3450851433736241  0.6943997868260529  0.9725455368458760
  0.3242079713048227  0.3237068715338950  0.6635056582962046
  0.3416923040795118  0.3166709121414582  0.3395129265181265
  0.3505048037452642  0.3503018587757958  0.9917026362994518
  0.3423212854082471  0.0003296919475602  0.6632369161450624
  0.3208257189454082  0.9863066194423565  0.2980122639591704
  0.3384020750568773  0.0225801955426999  0.9800967793539245
  0.0292742168936555  0.6645724039696085  0.6661250238335270
  0.9854419236664544  0.6814692327180396  0.3526005032885688
  0.9896690053176675  0.6846952721232237  0.0074011563767811
  0.9796581198055007  0.3008792945988163  0.6528737847934263
  0.9941476652039646  0.3436117662404255  0.3218476239610323
  0.9964396125794597  0.3382100409053860  0.0097644042524310
  0.9540625250291743  0.9914783749972800  0.6802613144201957
  0.0009763188966878  0.9858465989113048  0.3206898829358534
  0.9970868398600924  0.9744703454794507  0.0028467565120965
  0.8462813605988126  0.8307153766362640  0.8259022325837940
  0.8363612206026748  0.8384055802532350  0.5064157091157194
  0.8333024669113384  0.8425038373300382  0.1626534152351679
  0.8563163981883435  0.5097488685226407  0.8337194794171380
  0.8225545622236889  0.5159617595311186  0.5101901233984599
  0.8256145304773236  0.5114299037139221  0.1773204189393096
  0.8203626821298602  0.1753096864192824  0.8373079442120516
  0.8428610721967651  0.1614518241180825  0.4539384802738065
  0.8124418736179050  0.1663718641670791  0.1596272219347707
  0.4946123370076107  0.8175769704336496  0.8345589848775301
  0.5059976439892614  0.8378267198619981  0.4948280560552182
  0.4969395193414392  0.8200760538180579  0.1532815691457667
  0.5078392443163410  0.5102921017531357  0.8350917728722622
  0.4962097698273781  0.4983178939985843  0.5182418617261420
  0.4949548030902428  0.4945772850331386  0.1685194576153883
  0.4974896350916229  0.1707891867595723  0.8254962448929754
  0.5081630466249935  0.1638931550652200  0.4942593170164649
  0.4907395836641403  0.1642422607550812  0.1715424829324581
  0.1853721444835125  0.8354753272530292  0.8199523347982476
  0.1631520511244940  0.8295122312238444  0.5031331520782674
  0.1767352502833489  0.8238742330364298  0.1598261368751292
  0.1773320254684816  0.5107919346241814  0.8376753897926129
  0.1731684451827501  0.4886817186677239  0.5035562650974880
  0.1596637067483473  0.5169021951184765  0.1926409482519590
  0.1622524653157596  0.1637182985797148  0.8346775261578171
  0.1556574730083243  0.1511603519420296  0.4832656658905160
  0.1855961300139725  0.1683594346396759  0.1469200865614786
  0.6710102235251488  0.8458327906472746  0.8418562371056814
  0.8350678736969221  0.6681606258520624  0.8352396255893412
  0.8467627321229284  0.8088126079203086  0.6575514285717953
  0.6668173115599200  0.8367396866052691  0.5082979163089628
  0.8336491839620135  0.6751854112713573  0.5130626442041001
  0.8410737223189972  0.8035621360767830  0.3314116138059804
  0.6649985045186333  0.8198974321894289  0.1666816831595475
  0.8510958855481687  0.6820276884626699  0.1901779373678018
  0.8269570266707363  0.8204053621424614  0.0012643977072459
  0.6746537079921628  0.4954125800108978  0.8424821415432616
  0.8612158615277410  0.3317584681626421  0.8082243593069153
  0.8147708373097704  0.5102055844321066  0.6836457327490417
  0.6647138111159770  0.5109020549392020  0.4941018692572314
  0.8169792354508526  0.3253349113235726  0.4571735479254059
  0.8085491204819270  0.5186116915529412  0.3447700582115864
  0.6464633526864012  0.5512307053659775  0.1744497604625265
  0.8263729841470279  0.3428066733784771  0.1758049285892486
  0.8263141993318038  0.5236738252694538  0.0000994613888646
  0.6417220253582060  0.1976463372735010  0.8686038138576234
  0.8282639766742270  0.0004758993122762  0.8440604247641301
  0.8081854805298996  0.1733769331917362  0.6748093466914282
  0.6831404620495859  0.1694768926819703  0.4679772819933541
  0.8468935809678354  0.0088893760428879  0.5022842944881803
  0.8708853968363873  0.1500586933309619  0.2966079667874933
  0.6671287253331326  0.1589848152996943  0.1935089959263548
  0.8250768032625798  0.0058414572593849  0.1390725161560940
  0.8152360956407324  0.1735403525489350  0.0223806245770401
  0.3402202950597201  0.8227105204132860  0.7914954640388903
  0.5146460562885513  0.6648577046534137  0.8438262571530716
  0.5115994482201948  0.8580161460295451  0.6722622071254282
  0.3386627808541475  0.8446296452348546  0.4874680109562594
  0.4865518943167930  0.6792914415468677  0.4988113750532185
  0.5083689149345082  0.9952429814465518  0.1491033736270490
  0.3397258872336055  0.8373213809752014  0.1575841358438019
  0.4530331327533826  0.6557304714108340  0.1415057095358348
  0.4871073541410880  0.8411314629040939  0.0016394284507629
  0.4964036544555522  0.5231171913682708  0.6686676290336145
  0.4996686408250928  0.3407989614144381  0.8176605367127014
  0.5118959633625518  0.3308483561473249  0.5271916879023907
  0.1527943751818465  0.4673981338112996  0.6631103182681987
  0.4964679857719373  0.1788385364480681  0.3312803803496792
  0.5098106813530792  0.4825927130136442  0.3316691617412758
  0.3156214004692071  0.4953985720590606  0.1765467427554701
  0.5110464175204958  0.3376711800991640  0.1762937494287922
  0.5210587832804634  0.4939190327530211  0.9948721555420298
  0.3352608121000952  0.1490820233017132  0.8326250778158009
  0.5346393306449677  0.0452868450886438  0.8578677309096751
  0.5311711480029682  0.1908911239562517  0.6820031586971979
  0.3378132754975016  0.1749485768053757  0.4941837712415280
  0.4794493769104245  0.8315572102506400  0.3126934071927315
  0.4926229649342718  0.9904367398019468  0.4861770931751025
  0.1449141431719976  0.1443557767887182  0.9982277066665699
  0.3295773083119148  0.1577913863856586  0.1694338914482160
  0.4827936741980259  0.1902865350870017  0.0209506179048858
  0.0161111145909811  0.7870674084198166  0.8385106847703721
  0.1936172411290394  0.6679897774221407  0.8287608264084168
  0.1808426975482069  0.8336082211176910  0.6706109691958583
  0.0077460141297335  0.8505162238392642  0.5001802677339082
  0.3283455802000816  0.4645607948268923  0.4846186073196918
  0.1691635778253124  0.6663998344032110  0.5240185629279904
  0.9851698528555143  0.8453322290388501  0.1656374733451762
  0.1650149670199039  0.6698942920762578  0.2325250081495439
  0.1758871214306407  0.8114071559013415  0.9915930226846399
  0.0306438737364577  0.4981493532370289  0.8210708657039054
  0.1435866265802605  0.3151942675422289  0.8550007161197859
  0.3348832856524602  0.4777038163662394  0.8579172850514342
  0.9750332259859376  0.4875573983484457  0.5265769169525423
  0.1645898196088340  0.3383845330222018  0.4921249666901522
  0.1395746337906744  0.4788327925076600  0.3612586320862428
  0.0122829217669884  0.4907248553654552  0.1767669226573963
  0.0968533462435595  0.2822035571805882  0.1747565993844166
  0.1813952019375768  0.5339780503496360  0.0150864960512992
  0.9908186770945789  0.1228806048511337  0.8610066457126810
  0.1554842460605691  0.9837492838788985  0.8390768327428895
  0.1407200773725857  0.1448880789585310  0.6403100284994153
  0.9828042814968850  0.1575643340853961  0.5157094993347676
  0.1838082335831704  0.9861214973750950  0.4940904523716299
  0.1461517517896238  0.1338060481826961  0.3121519755629786
  0.1675405379837617  0.9949324579626855  0.1315575030292601
  0.1925265439427114  0.8295889411972293  0.3108516449240121
