Cl O  Li
 1.0000000000000000
    11.7780000000000005    0.0000000000000000    0.0000000000000000
     0.0000000000000000   11.7780000000000005    0.0000000000000000
     0.0000000000000000    0.0000000000000000   11.7780000000000005
 Cl  O   Li 
  27  27  80
Direct
  0.6609999001492673  0.6349943535677347  0.6668401956860228
  0.6563343210230588  0.6876797179021183  0.3419018259454105
  0.7009451132585577  0.6373332766704439  0.9960933848973487
  0.6660333701955469  0.3400219077563610  0.6508410904174690
  0.6374301041938679  0.3361204704999524  0.3197144245549138
  0.6571164991429843  0.3609980868951561  0.0014708071254675
  0.6606700655145349  0.0041128468616164  0.6773345402512552
  0.6893433712753996  0.0052924860654778  0.3288238847025325
  0.6421731723946904  0.0065055760230049  0.9641566584136556
  0.3028091223572008  0.6628303400803435  0.6710299902746867
  0.3328917454805744  0.6775214427247483  0.3270205026024305
  0.3604746374529806  0.6727191443691924  0.9938560320971495
  0.3279210075769879  0.3407831954047607  0.6802260082287442
  0.3482146431897049  0.3409603595586321  0.3269252809182657
  0.3052739955702149  0.3327930961137034  0.0107865744381186
  0.3287381853338014  0.9869949048327847  0.6687701351775786
  0.3466204492027322  0.0047502532674174  0.3490713871906297
  0.3453723244998757  0.9627879191317859  0.0055409406010799
  0.0145503986437393  0.6657733054992687  0.6631456186316721
  0.0109024886153520  0.6724013339012102  0.3682140225989221
  0.9956258508640398  0.6627927291345148  0.0045160312570179
  0.0025745812778509  0.3354154373286560  0.6753750464104478
  0.9966140649283804  0.3252336806135244  0.3414927613634370
  0.0041928628185653  0.3347867393977903  0.0406189344696469
  0.0108630925159790  0.9975309949163353  0.6807128047977912
  0.0154764517892181  0.0050677898262980  0.3253952967914484
  0.9750877804770465  0.0168084100498051  0.0010154220157071
  0.8424889079368312  0.8052601984404333  0.8273048062115598
  0.8413155597861228  0.8391179848266314  0.4862662796191984
  0.8133484815161474  0.8190326871334348  0.1540425704823080
  0.8395563067828489  0.4824663813494370  0.8064538484456907
  0.8321615656875766  0.5154705328671758  0.5012087561738838
  0.8397653734397484  0.4956140991963364  0.1717449070681394
  0.8302715448102160  0.1735636549598440  0.8334717057943527
  0.8454049910435603  0.1717539773784973  0.4942092741357975
  0.8277411257185187  0.1690750375604570  0.1553600972991440
  0.5045261389079784  0.8196940567901173  0.8305714929683178
  0.5069730365989819  0.8524817328209386  0.4880082048670203
  0.5122567874494733  0.8209753390437098  0.1587106090971702
  0.4839216968031977  0.4850710911683633  0.8309274406924577
  0.5008474321343218  0.5171979238528316  0.4815709032312782
  0.4860430917983314  0.5148843851021507  0.1690428197169692
  0.4837523058480336  0.1704711566793274  0.8366279483528103
  0.5141089544685458  0.1638153249221137  0.5076402279105954
  0.4876772853703189  0.1550996461142185  0.1557514596356239
  0.1503265646474966  0.8316098845835436  0.8503068347780445
  0.1583477769760883  0.8289496692675978  0.4997647225723564
  0.1912500368383756  0.8320521472016630  0.1597243333978611
  0.1770306094624073  0.5064965369011964  0.8328109839042291
  0.1692835643298889  0.4907123686739824  0.4862110575200484
  0.1559449982605604  0.5163211313298900  0.1816292579618956
  0.1540902300538998  0.1790794074519626  0.8551022506139117
  0.1874356229706201  0.1756524389572759  0.5119644745456502
  0.1688804106177657  0.1570714070342361  0.1526831311448379
  0.6693149150977503  0.8521162305400543  0.8008715581823457
  0.8026430865089290  0.6417078871554567  0.8006713983156316
  0.8842909034019262  0.8282257901379770  0.6621482605579472
  0.6720068304896746  0.8245730345120882  0.5125073029220458
  0.0048866563013086  0.4842401281294672  0.1683431812265466
  0.8701393903011222  0.6679816226695309  0.5029272808547638
  0.6701769304460661  0.8171423423727946  0.1891331477223501
  0.8416197671563672  0.6642734830028523  0.1643288504045369
  0.8246495788451355  0.8161648626353472  0.9946042891368112
  0.6529578783199698  0.4890234793131740  0.8183669232312416
  0.8195772428053193  0.3423744339568082  0.8021988318616231
  0.8243504726365426  0.4853471206932937  0.6445137066696978
  0.6736564490028472  0.4986654845430650  0.4670916202516482
  0.8728106986193902  0.3279599681184827  0.5179590682237638
  0.8696363185972820  0.8523617340658941  0.6828739159800702
  0.6586081031011841  0.4799253145949270  0.1474749867973981
  0.8233026292566298  0.3422385244356597  0.2063840618660645
  0.8432342443337167  0.4785271509628549  0.9789847510335867
  0.6402986574293343  0.2089555752273776  0.8567908160914405
  0.8159398716352055  0.0152962154651466  0.8579145291295697
  0.8198915715280471  0.1692048945128204  0.6729843019830227
  0.6555206857396143  0.1722719072277835  0.5361718752221010
  0.8187543363630000  0.0070279352291717  0.4836613268878125
  0.8230080574139499  0.1769309277175829  0.3099647078918933
  0.6446762638346822  0.1681823342714114  0.1382878958762309
  0.8214132561458282  0.9688370542480949  0.1656057905979139
  0.8203504331642396  0.2115675724200921  0.0118230616605449
  0.3260756421067844  0.8208723441608374  0.8324103402875217
  0.5155544455448309  0.6683577726132280  0.8244364958885529
  0.4873165198823967  0.8555445350532687  0.6620432818899881
  0.3359080704623001  0.8517894323110665  0.4652730966082310
  0.5242633835319719  0.6911452689924722  0.4568129009797246
  0.5080004348468780  0.8389688365764342  0.3282214415600089
  0.3438280490233517  0.8121666854919011  0.1571202409814363
  0.5271218963857749  0.6556787138717252  0.1594177677524881
  0.5123110378987850  0.8081191161483353  0.9990885271534955
  0.3367531224238533  0.5411877559362968  0.8380990262081736
  0.4566460688494858  0.3302865026857523  0.8725103291189898
  0.4617269877962079  0.5006714961198867  0.6523107512834846
  0.3202367553152772  0.4926346159376507  0.4583385126822691
  0.5050497772000653  0.3223190549815529  0.4767238280123351
  0.5122112818487076  0.5388423956534079  0.3242453492076819
  0.3158900392777090  0.5086466360519735  0.1775527617929321
  0.4482296784345279  0.3335526833748859  0.1568003657575475
  0.5181363620779642  0.5073174595584290  0.0067677206367178
  0.3069934919009334  0.1929168347424983  0.8237867860299316
  0.4892676332433479  0.0023841894417312  0.8445065710676144
  0.5087700624897240  0.1728535611123059  0.6627829503294830
  0.2177189120283318  0.3443319440125291  0.5176625530814067
  0.5412414260127308  0.0133833772637809  0.4842882839460509
  0.5053783163016800  0.1689173974955263  0.3187426127748571
  0.3229271525043290  0.1569037873157567  0.1532199980446207
  0.5032170026923513  0.9944476355845268  0.1537215414242360
  0.4693918475465600  0.1281509378457240  0.9847813520795868
  0.9894840070056122  0.7957579488456344  0.8666057749925699
  0.1814914741132845  0.6757602059363880  0.8024809341980434
  0.1834430935418598  0.8521644891486955  0.6462652269596740
  0.9972591945587109  0.8647541561050642  0.4974763252612447
  0.1639958155451663  0.6881328306101001  0.5142405238067320
  0.1376713518124448  0.8479771641700378  0.3092227722694421
  0.8587647008611391  0.8238442971332754  0.3165275952692508
  0.1454858861233232  0.6650033944585531  0.1486538308425050
  0.1164203475896650  0.8089411319116361  0.0043332734744381
  0.9791800988502798  0.5165790233911699  0.8234426600454923
  0.1705942592337985  0.3541726516343763  0.8263410915134899
  0.1890184608001063  0.4985298179343761  0.6452669377215206
  0.9954987152903253  0.4916243835035666  0.4992121776975766
  0.1722439789604958  0.1795197267704052  0.6665855829429478
  0.1377791745804516  0.5152075801296542  0.3340931417762676
  0.8559079187586109  0.4841237325759067  0.3533793991763010
  0.1830706277704667  0.2750968525917836  0.2517842183817524
  0.1759066737545234  0.4954841005450382  0.0361605799141855
  0.1272775122773737  0.1948767941655201  0.0189713197462121
  0.1636886223759393  0.0079336159898548  0.8876717912560084
  0.9950989060526134  0.1495463029189761  0.8536472049808821
  0.0289554883141580  0.1864326105166426  0.4841143991103842
  0.1755438839961044  0.0096679495907296  0.4516563552872458
  0.3389783017673530  0.1574665446351923  0.5122052007931182
  0.9956483895345590  0.1574823845518290  0.1723208727525661
  0.1634173701293813  0.9972403299157139  0.1480274405800055
