Cl O  Li
 1.0000000000000000
    11.7780000000000005    0.0000000000000000    0.0000000000000000
     0.0000000000000000   11.7780000000000005    0.0000000000000000
     0.0000000000000000    0.0000000000000000   11.7780000000000005
 Cl  O   Li 
  27  27  80
Direct
  0.6731541514477546  0.6883368876192431  0.6606517694127416
  0.6502911902643934  0.6753356864708949  0.3231896834485432
  0.6588017497428579  0.6642773396598715  0.9816506648320557
  0.6576488062387562  0.3294534044632050  0.6359348193668609
  0.6827846993066342  0.3416364764476060  0.3335257907890483
  0.6817758028910781  0.3366299494416378  0.9866537556388557
  0.6706414649656084  0.9963148806776000  0.6429318317949413
  0.6708510174474269  0.0040713038757786  0.3387110608798753
  0.6664975403463996  0.0125818791688562  0.9885988708332913
  0.3220431180189685  0.6399811139940256  0.6812224871710471
  0.3442531912390283  0.6710684028076174  0.3412002658242598
  0.3315688896369388  0.6832604220676139  0.9606062563910002
  0.3223690255689374  0.3342856822648172  0.6645510002143088
  0.3725564603530959  0.3389133872900326  0.3491620860564782
  0.3333499237907571  0.3271621934161029  0.0176357279843492
  0.3080438705449263  0.9913838956510613  0.6875640408122953
  0.3524279242420897  0.0127582639785864  0.3579972980372037
  0.3364536162871205  0.9972884428190517  0.9968666690398542
  0.9828606905911191  0.6490587930948460  0.6678386584134124
  0.0149744123286139  0.6710437471929676  0.3346746452667466
  0.0041420161718937  0.6600657639206631  0.0289470630613743
  0.0119126209663632  0.3335240909758430  0.6677569993415755
  0.0284183201694217  0.3629677936023426  0.3381687588138089
  0.9866005176820857  0.3247548297279001  0.0071747060744153
  0.9798339380859973  0.9636445199782456  0.6546743820338500
  0.0146129105122985  0.9962728808603005  0.3478119786059979
  0.9733555968962726  0.0278427304569248  0.9917903451871597
  0.8005480119562113  0.8308273121525941  0.8200746498552657
  0.8135310351554992  0.8183335956177692  0.4668550755490000
  0.8332645956071886  0.8352858893778101  0.1605766842807988
  0.8313538461999418  0.4930662819214428  0.8228832037132099
  0.8205319341829331  0.4891157156200793  0.5088516438942381
  0.8415417566973834  0.4965514684356147  0.1793263784216238
  0.8344953520691836  0.1704542443210504  0.8235091081507901
  0.8424400469729999  0.1662376686337151  0.4886030280573677
  0.8311770059293497  0.1654873019246452  0.1975996706224025
  0.4968521748663502  0.8502386087412089  0.8288309962574396
  0.4982198529847419  0.8226964653339013  0.5007950878027739
  0.5194887821227699  0.8365202895266990  0.1513378732484409
  0.5028955534634341  0.4810356375054435  0.8356995079943894
  0.5128812798236650  0.4967092805635376  0.5179101329107498
  0.4967636737602343  0.5040606212993607  0.1568939795729113
  0.4982654395563276  0.1731854912887256  0.8184809012078023
  0.4844557852570066  0.1709803927085532  0.5059926047301061
  0.4904860870666819  0.1677809016109334  0.1619336236442055
  0.1322299455802767  0.8329812169319051  0.8453836180506117
  0.1734375747421303  0.8335957854547038  0.4970916444436478
  0.1542508203583623  0.8311715191078535  0.1848751265228387
  0.1638388382941063  0.4934352254621717  0.8419989568093060
  0.1754333232675337  0.5063764272329976  0.5004970342148396
  0.1723569179374659  0.5050032835842647  0.1666696979904619
  0.1861799324220651  0.1699860912832781  0.8505068037653049
  0.1794714595105847  0.1571921754337923  0.4979661292982230
  0.1813855084787413  0.1677763470023158  0.1813652236659021
  0.6585964887144923  0.8416854181260840  0.7831436160009746
  0.8129404339953814  0.6743367494661825  0.8043783754530186
  0.8095456514015921  0.8455086982986149  0.6327758238005277
  0.6454016863358396  0.7935110191373708  0.5003263072411477
  0.8142939422202961  0.6531535279409848  0.4931003093344806
  0.8308293172288362  0.8290010962812896  0.3135421114747862
  0.6776993674502294  0.8344893794227678  0.1772725940610799
  0.8541087518241888  0.6768266831479459  0.1710993989970424
  0.8041687031374324  0.8074664209124542  0.9863974943804947
  0.6588279438030852  0.5018604012110852  0.8635696641929826
  0.8178435410216731  0.3328675390829426  0.8253182391791029
  0.8036519473650344  0.5106800263089861  0.6586823161610903
  0.6683876826799902  0.4710451743522502  0.5153875679885795
  0.8787363505703450  0.3215697008294544  0.5236190210509587
  0.8485118868132675  0.4703949786687096  0.3318887429956605
  0.6721819752990085  0.4890495624602469  0.1772614403306431
  0.8269917861920084  0.3277279770199312  0.1826767080353054
  0.8418518749374782  0.5059401564555484  0.9865067088344681
  0.6791374092110865  0.1915450983834837  0.8261214697121940
  0.8015693778780274  0.9799815544331808  0.8449669422115705
  0.8476126248878124  0.1660382476257326  0.6503260465798845
  0.6464600154369253  0.1763082726558729  0.5138930085954545
  0.8558099487496171  0.9952621917001856  0.4669721593545291
  0.8428449010723401  0.1449489421302293  0.3368990149020476
  0.6603878061624338  0.1464905152056402  0.1826945823437912
  0.8602293360980170  0.0000562307158226  0.1854317806667268
  0.8355810088219746  0.1899950334933391  0.0333410255723355
  0.1507270411271708  0.0179386502739277  0.8394191455174893
  0.4683595554900211  0.6524980691541525  0.8453492054521677
  0.4800570454676731  0.8534225433200614  0.6733927708314436
  0.3452069870116642  0.8312636639008634  0.4763442078709800
  0.4721514189844432  0.6492857947883461  0.5312852573052487
  0.4803551800264274  0.8249514216964074  0.3131301117005925
  0.2243937262474112  0.8215149391303861  0.0483536279177029
  0.5102938572747807  0.6693212954273239  0.1836979322581866
  0.5153894724253086  0.8238815542534903  0.9883423185860465
  0.3245438005770693  0.5079409858998986  0.8232857096587741
  0.5197527065101299  0.3267278254529206  0.8228259573435633
  0.4922691050055870  0.4681258524127265  0.6743297246735471
  0.3406165083208831  0.4875203070708085  0.5061298502697824
  0.4893266254115810  0.3300287021383678  0.4980125660634173
  0.5219609022241625  0.5015048178556346  0.3659390375060948
  0.3331384077665567  0.4949193396195338  0.1944951684178405
  0.4917125520752238  0.3528570482962352  0.1779214334833878
  0.4957052636883287  0.4975194745871376  0.0007541456301192
  0.3436470841669056  0.1599300215232868  0.8440530245677195
  0.5009967472521176  0.0142383979140843  0.8485805079606432
  0.5114157079840529  0.1421931508827816  0.6720601530780548
  0.3420617159992986  0.1785996254019097  0.4876044554213446
  0.5290202216981311  0.9828610184866247  0.5044486936222714
  0.5129705501525696  0.1637619352094862  0.3340182350727810
  0.3352486895166635  0.1882956179259478  0.1735587661943055
  0.4973532627851037  0.9874890271524146  0.1268931470989568
  0.4932563417268285  0.2046241327324300  0.9839233942895228
  0.9757181482963547  0.8675233686876281  0.8385345393104305
  0.1552757287535475  0.6912789623591498  0.8531912293563915
  0.1508607644361830  0.8133236071092518  0.6813192473007894
  0.0001280883062297  0.8233956483634621  0.5111570855629319
  0.2290194272448349  0.6818763068727890  0.4983376234197777
  0.1799434789050057  0.8323238148453960  0.3382834944655619
  0.9787297364851183  0.8474607428239945  0.1268408601920270
  0.1291292591256010  0.6813673242990981  0.1825423167170294
  0.2981958755492909  0.8529671634291235  0.8601192548888567
  0.9911058353130704  0.5255069979891296  0.8473091851178947
  0.1751125371219213  0.3310889745391303  0.8298669369268320
  0.1421341242035481  0.5094452617914078  0.6747985052351734
  0.0233865909957695  0.5659081982705071  0.4977530545857402
  0.1575396526343540  0.3378003016720111  0.4757632827238365
  0.1833960746641806  0.4974452243453186  0.3329761001356689
  0.9897956932880402  0.4850706158865196  0.1600258195505313
  0.1528853588161644  0.3289181063730572  0.1795705864143460
  0.1787363861651173  0.4960539432329353  0.0053325813347601
  0.0024563956916452  0.1595353596258972  0.8117934402240776
  0.1609274717376345  0.1982446240193687  0.0154850921589783
  0.1855001014184527  0.1617934738503782  0.6668869678820929
  0.0266148545681619  0.1789918480533507  0.4490911707760114
  0.2004147644965133  0.9776940832258215  0.5262359979490950
  0.1920840614516809  0.1237918843012014  0.3398150980087766
  0.9957624674799759  0.1847637112487120  0.1772631609605653
  0.1443280285678738  0.9761426747261346  0.1714699012260538
