Cl O  Li
 1.0000000000000000
    11.7780000000000005    0.0000000000000000    0.0000000000000000
     0.0000000000000000   11.7780000000000005    0.0000000000000000
     0.0000000000000000    0.0000000000000000   11.7780000000000005
 Cl  O   Li 
  27  27  80
Direct
  0.7102075309046963  0.6498487689466300  0.6650786552717309
  0.6651348811126699  0.6657934618242324  0.3405239050329485
  0.6524580895541232  0.6555274954564380  0.0203546849533397
  0.6495582410967777  0.3156821548656525  0.6750978225805674
  0.6625344627471966  0.3363796729278716  0.3344448385470078
  0.6704664857177034  0.3517095543702157  0.0168369165403544
  0.6666802901806720  0.0036531055844198  0.6852811987120965
  0.6476430787798479  0.0157566721310170  0.3317239963296856
  0.6811112335808409  0.9474156820111290  0.0266146086216393
  0.3410377981904869  0.6607517327543266  0.6581342333911550
  0.3209035941220901  0.6575243573306148  0.3306448982133037
  0.3324592839514482  0.6691030631155204  0.0019876533720966
  0.3352466639399969  0.3340334219659642  0.6567173654996933
  0.3218856284681550  0.3341619024143899  0.3245445364017376
  0.3307434920357386  0.3342834801004217  0.9856324110784821
  0.3385759006551028  0.0332555657364227  0.6531304391503572
  0.3088600146176168  0.9711263140559985  0.3311176868305134
  0.3556087401382075  0.9844040495317320  0.0024449458823618
  0.0056398032865833  0.6708447454508827  0.6718195569965685
  0.9980535896079507  0.6768072341989185  0.3370960458592434
  0.9977815744644492  0.7001022556770957  0.9406914438777733
  0.0248463468122101  0.3796864301093951  0.6750840170557800
  0.0095649428527548  0.3251400324511635  0.3254651543809327
  0.0074309575277160  0.3509506148755922  0.9978981830525646
  0.9958934165485299  0.9879387104820123  0.6729330677113944
  0.9817618962818037  0.9969062384293162  0.3222548435575080
  0.0045220416037144  0.9903011650966613  0.9802406325025957
  0.8285369915267912  0.8473301209392884  0.8337031406548836
  0.8339881900327698  0.8340722018065487  0.5114542166961896
  0.8280765914450211  0.8177477557837649  0.1630150786241154
  0.8223105783913954  0.4893708387212246  0.8481624238420061
  0.8398809224194892  0.4974233057862852  0.4953143841427051
  0.8312872463944304  0.4966903579248394  0.1651979203501765
  0.8525032206162648  0.1909922136731654  0.8311613856484047
  0.8257652793918869  0.1627370513474520  0.5115046210315576
  0.8328000242220256  0.1665054940322273  0.1629291179774729
  0.5260959187470156  0.8233435681740279  0.8262203033075948
  0.4874176965416112  0.8454520837432682  0.5022777936805402
  0.4954809732111243  0.8329071126794667  0.1754752732395150
  0.4939547137420208  0.5061813525756764  0.8393053497399163
  0.5001841227977517  0.4843897567953999  0.4844108535392694
  0.4840113351205808  0.5035568049058824  0.1740941539650251
  0.5026349475735189  0.1866398701636164  0.8429455548887256
  0.5043995446509040  0.1632228054171931  0.4937346434470789
  0.4818939076956206  0.1726124448442602  0.1594400651066524
  0.2150980319079261  0.8514735597335780  0.8225302201337468
  0.1844050709870919  0.8449819671631142  0.5206725421111209
  0.1474270740572773  0.7986771034343353  0.1596223304221754
  0.1680224676729378  0.5113284246822307  0.8570594165582911
  0.1684425240437084  0.4989836539705532  0.5128843233166996
  0.1506571215180448  0.5096613164719668  0.1626912155873480
  0.1640060822163739  0.1689932718659116  0.8113955178395879
  0.1583897538446266  0.1619133554396389  0.4879481447760264
  0.1557196904527142  0.1337243260310527  0.1810562679697422
  0.6855657622650635  0.8539762868048805  0.8401013738700396
  0.8343162837948754  0.6709266069497695  0.8478021036935932
  0.8331157294486914  0.8007967575568419  0.6865309023459403
  0.6662163678682379  0.8236559535970791  0.5054089352848388
  0.8186942596344472  0.6688717699685671  0.4764188311912402
  0.8158193097042110  0.8420960052013760  0.3234134347762954
  0.6793405232065558  0.8304943441890377  0.2058487435478547
  0.8458484718437669  0.6481290701888618  0.1988416097672909
  0.8457231290146111  0.8320866353617437  0.0050426095003521
  0.6711184222738714  0.4605949429315869  0.8630803257528615
  0.8369394954461414  0.3327984955067462  0.8492217650783402
  0.8385367258388592  0.4941670237798805  0.6748150724775881
  0.6726277993270322  0.4392422899658152  0.5136803879322327
  0.8714188948164667  0.3261266821339610  0.5034100896255753
  0.8260922395625141  0.4892234718290646  0.3420792532690896
  0.6725016872750877  0.4725412967241037  0.1870459629132536
  0.8638554915034092  0.3213399706612296  0.1786623656803425
  0.8251077153637381  0.4861566615411512  0.0036444654784005
  0.6705838529211023  0.1908049281668106  0.8172092227061158
  0.8297794077868470  0.0066592285591344  0.8340552827504900
  0.8304665261642475  0.1597586814375394  0.6767094252938117
  0.6820428838342431  0.1886363069409887  0.5131338348981231
  0.8467668428827106  0.9932161829310414  0.4775332730704945
  0.8270301245690462  0.1561185572595500  0.3230262120729813
  0.6676295111019857  0.1637520003317934  0.1870716711485618
  0.8142759249067055  0.0088302928264119  0.1711373830213123
  0.8577517491601138  0.1998411097224486  0.9916320793496970
  0.3610018420809309  0.8499286364904950  0.8728731796201668
  0.5254802571181486  0.6655404684975545  0.8372290150060393
  0.5088439924680529  0.8347002924562654  0.6675769694333505
  0.3514435201933736  0.8458375048458402  0.4916327624195332
  0.5556765835153220  0.6547739810067457  0.5057533041817377
  0.5008025779199042  0.8251195011661945  0.3421005081093049
  0.3240023676411465  0.8078309355912416  0.1816067076032055
  0.5042761451214249  0.6632023146176340  0.1532397751820165
  0.5099496894987614  0.8157239711119819  0.0151853091814189
  0.3300472037129880  0.5284187332047369  0.8509487916953067
  0.4967299481075894  0.3342259098474955  0.8286448125669047
  0.5071790704699255  0.4943702200523395  0.6718115813708115
  0.3439798729303936  0.5057607496518717  0.5023230968542562
  0.4682934819948387  0.3175432691603203  0.5055052905604818
  0.4893871497932625  0.4662967461250575  0.3291269382532369
  0.3251431857649728  0.5103850336599478  0.1843709704226818
  0.4642516210940739  0.3369341003742133  0.1515762094451219
  0.4877487862240517  0.5037627541862169  0.0085956248907767
  0.3142043113986647  0.2143665258266985  0.8265601378385813
  0.5066186714256183  0.0181653794287620  0.8261680771287800
  0.4841594307501195  0.1465558123409573  0.6673260408625795
  0.3301680526616411  0.1507717908684960  0.4848190679276343
  0.5142593209008300  0.0046829737586142  0.5118470871141897
  0.4871264849879555  0.1767963690484837  0.3438911373052776
  0.3209428447270211  0.1459687334115038  0.1774443418797719
  0.4973520469166359  0.0081058076808113  0.1608492812556364
  0.4834502478243050  0.1614508804806099  0.9979722751482510
  0.0214920116732832  0.8466730427360589  0.8014188602111819
  0.1782478879026833  0.7025126760137488  0.7782054168340220
  0.2296530428468377  0.8921107899548708  0.6655684882465228
  0.9932345264971748  0.8190360015278659  0.4840891969573435
  0.1701518079297711  0.6611216074594839  0.5376281556747764
  0.1557834650947129  0.8255892128922494  0.3271280925939734
  0.9840728895123346  0.8466701277865437  0.1704550014368741
  0.1476951583205081  0.6654910358120252  0.1941511118712678
  0.1624774239867319  0.8105518790220885  0.9802412435792521
  0.0011953936221888  0.5046728257161242  0.8277194780374525
  0.1712443775663086  0.3464153582839612  0.8550412998438991
  0.2094673210942998  0.4955502887810968  0.6842809661742659
  0.9944667258844830  0.5144085141846026  0.5146885960958201
  0.1474186126066011  0.3268069787197877  0.5212810378224295
  0.1605631624701732  0.5017928960804662  0.3337426798398167
  0.0004874193677288  0.4959674909304671  0.1664064300794126
  0.1940490600020696  0.3425269370868463  0.1573668679920451
  0.1530385543011850  0.5600378788486321  0.9936640787641892
  0.0291841560595929  0.1784198542295437  0.8405182116507203
  0.1797056865435882  0.0242535209723734  0.8643224991004578
  0.1411785660094100  0.1227984474813334  0.6597638925972298
  0.9786273374558726  0.1458822565758847  0.4770980144282937
  0.1304382118507135  0.9903830057202584  0.5019953674608403
  0.1774864383126438  0.1411415668928959  0.3392608816992363
  0.0060113461171469  0.1346644579778360  0.1709429315973991
  0.1841853364246749  0.9751080465319970  0.1281130014527262
