Cl O  Li
 1.0000000000000000
    11.7780000000000005    0.0000000000000000    0.0000000000000000
     0.0000000000000000   11.7780000000000005    0.0000000000000000
     0.0000000000000000    0.0000000000000000   11.7780000000000005
 Cl  O   Li 
  27  27  80
Direct
  0.6171731174186244  0.6831365994269430  0.6310695385818571
  0.6552940174708769  0.6933334167145702  0.3462519266880090
  0.6646171191267174  0.6652048421443680  0.9995177430934727
  0.6766324195723518  0.3200680989606133  0.6604864398669803
  0.6591541393664480  0.3126983171205654  0.3542254067182883
  0.6939309445581485  0.3214134088900165  0.9765457395191305
  0.6613384082032092  0.9945920703243865  0.6512991262760586
  0.6737263768472864  0.0113965594437724  0.3227801661527648
  0.6593034090728748  0.9962194402070464  0.9975930369737355
  0.3210459669878171  0.6543311492880536  0.6683442530810781
  0.3286421027548063  0.6458046385580752  0.3616748840877915
  0.3618315559938133  0.6747318688100462  0.9952009723423959
  0.3345030540947275  0.3214581452679937  0.6937861753626476
  0.3033214342759893  0.3510419476555700  0.3674538929580062
  0.3335902295569447  0.3709519840091620  0.0019396381972113
  0.3290777257656965  0.9879485866172026  0.6567548591479500
  0.3217767691225364  0.0386217526980590  0.3246874945428723
  0.3374856547299782  0.9929532797606178  0.9673984432255904
  0.9585248292637958  0.6626185531869616  0.6756673754861771
  0.9998040195506304  0.6682292642080805  0.3416969537017400
  0.0172919637504023  0.6772205069586917  0.0126416960047407
  0.9805636491998345  0.3283190862332857  0.6389928976746382
  0.0022702143908741  0.3446349695918683  0.3159649737006983
  0.0274989112466963  0.3237872506587940  0.9867743935209944
  0.0037212875511998  0.9865173514658908  0.6671102982716985
  0.0328795234404551  0.9682428193994329  0.3602661132783168
  0.0010732939265239  0.0041731238207448  0.0170244630346861
  0.8507964426259593  0.8424677399305568  0.8505562088338340
  0.8261824469775411  0.8402716493540947  0.4902315260549638
  0.8587323117104102  0.8245793425220211  0.1765207523816043
  0.8380632144059647  0.4914602074522670  0.8270439021605407
  0.8387026409704629  0.4957629158492370  0.4858195880219918
  0.8094452926858898  0.5026569333944451  0.1590968035958318
  0.8374478361749672  0.1526584592733513  0.8210580533309729
  0.8464770542400966  0.1501688089894574  0.4939924991816063
  0.8382704187340072  0.1662432272418411  0.1480892052461606
  0.5140924054773660  0.8259176282328008  0.8411520958727152
  0.4992861218416988  0.8496305805977269  0.5016827027985773
  0.4907923638083571  0.8364368713251424  0.1833780699027071
  0.5255828530686156  0.4964209657023049  0.8444059892399339
  0.5033555128212188  0.4888922583855608  0.5070001375101340
  0.5130406754980995  0.4977620449063699  0.1758373586619176
  0.4824497782957091  0.1701761925112360  0.8476333241782359
  0.4866401396801119  0.1595721426064348  0.5205042484206828
  0.5001481776754243  0.1842232532544101  0.1586915142783346
  0.1474526870007546  0.8282800328732719  0.8200873751423944
  0.1834495402635227  0.8180694505462672  0.5133313673718489
  0.1837049829575015  0.8415187619217031  0.1619526950193413
  0.1620640030235320  0.4965089000126816  0.8305507483690272
  0.1623778864067506  0.5065545042942051  0.5067791276573042
  0.1491722136955306  0.5338483911677973  0.1698450524094654
  0.1637403520286134  0.1627402170259458  0.8154339821245759
  0.1623235448652666  0.1690145648867035  0.5177320909462692
  0.1701369658273718  0.1685149243213550  0.1384446797995012
  0.6929629384066256  0.8473394302787397  0.8702228873883125
  0.8283569993159182  0.6607328642484639  0.8561874054723795
  0.8245606824264035  0.8552732750926937  0.6519213870267446
  0.6643890243271491  0.8220844696202457  0.4779426252089952
  0.8080136476198021  0.6511462430593626  0.4847870886124441
  0.8445978024817783  0.8068483523873088  0.3352571419705820
  0.6646918956788656  0.8335491280053672  0.1941320878872564
  0.8532756071886802  0.6574947197057095  0.1560097101175413
  0.8367523778031203  0.8460971759603237  0.0163861346369323
  0.6781363310951717  0.4651927066913227  0.8173596301626785
  0.8496290053451013  0.3352493989484995  0.8464394904101009
  0.8547015033265573  0.4990886708190886  0.6848267541442445
  0.6820405416021607  0.4855638313786536  0.4936167136065986
  0.8278612149858660  0.3390677399010186  0.5146695721118087
  0.8195022733676047  0.4434682762061267  0.3305373123950616
  0.6648594243051726  0.4845790237820081  0.1691742091668584
  0.8504881867147217  0.3250890387725180  0.1844536862738347
  0.7816400750848308  0.4912438129361696  0.9957590207025886
  0.6606247718823018  0.1380349672635362  0.8595825119494481
  0.8482874808015272  0.9846184693444306  0.8351999309042126
  0.9682679364407318  0.1571908717649344  0.7711610811203865
  0.8523180462729203  0.9977344912271512  0.4484682346417657
  0.8318760721182050  0.1758019843475553  0.6587224905561542
  0.8154643395516035  0.1709234924505035  0.3390952600458538
  0.6868286700642398  0.1574760611138623  0.1310618211720445
  0.8671105243838002  0.9983570943642144  0.1926686617743707
  0.8970677844353131  0.1696174736114412  0.9626845574143159
  0.3515142946116324  0.7984852002864142  0.8174914506574239
  0.5442807562487825  0.6465862903676717  0.8246683802472511
  0.5209670305112158  0.8560808780500581  0.6875538513574013
  0.3294382685838642  0.8097409539562762  0.5355383434580488
  0.4883843321108903  0.6754747355969261  0.5106041891878722
  0.5274841288899379  0.8507052253190160  0.3366232816433962
  0.3328828482318721  0.8713660635998350  0.2055265243288473
  0.4967897914651659  0.6615734223295144  0.2015143797189740
  0.4781920087037659  0.8300291645240622  0.0101268068632602
  0.3222007323353657  0.5032004500228096  0.8496624529241301
  0.4737769937796389  0.3209919355298982  0.8279227594393890
  0.5353838445033176  0.5105912640333183  0.6613645279230397
  0.3251219166037465  0.5169944769538959  0.5191226433212738
  0.4997425543532952  0.3507116271959181  0.5540319977450986
  0.4701456144501953  0.4659313629955693  0.3297440817582240
  0.3172423222391041  0.4904479912330961  0.1457988545140196
  0.5263696060398637  0.3385840202231267  0.1339714164918316
  0.5016711983117330  0.5141274216785970  0.0174893734441565
  0.3364794505941825  0.1590818845348386  0.8052868809203477
  0.5093028195405295  0.9844959212737294  0.8476856313278707
  0.4994898849098968  0.1184928926794822  0.6745989250326079
  0.3154123209819706  0.1848134900458385  0.5105645944569568
  0.4732769584815437  0.9958157023031097  0.4971088636112792
  0.6464100610565909  0.1219032722774484  0.4895315738026143
  0.4720485906587349  0.1987952275800841  0.3437424385532475
  0.5053099055003747  0.0195929635276702  0.1638397300977195
  0.4719949474905722  0.1595631346027245  0.0081297710283377
  0.9944139926013082  0.8414198155798243  0.8303918836204460
  0.1500880442750010  0.6524530311212134  0.8572055325614008
  0.1346559472939259  0.8102159287856222  0.6827453182487155
  0.9965422852981596  0.8229139346989743  0.5127612923145678
  0.1935854067664940  0.6674131998000400  0.4994060867417563
  0.1987628429304988  0.8506746183491061  0.3478117890473577
  0.0104480551235864  0.8400326234938441  0.1905707685597036
  0.1594642121819126  0.6852538244248536  0.1369353331103978
  0.2130513789012246  0.8289619691182009  0.9678219079618099
  0.9991313013274757  0.5035224709734248  0.8491550897668367
  0.1633724611085427  0.3251449288809320  0.8116681912341511
  0.1203028877011177  0.5039238433275111  0.6684829965809220
  0.0123138929269414  0.5072251046243524  0.4991159278087592
  0.1764077104866454  0.3234107970745224  0.5058608780745901
  0.1591865834832900  0.5472899521199978  0.3165238140567228
  0.9948226864887472  0.5052294573124739  0.1694057755903286
  0.3044432242571467  0.2397085075690122  0.1594606763389664
  0.1443066467656002  0.4849699509003311  0.0117696478657758
  0.1754303117200178  0.1932752443626274  0.9626309975043990
  0.1416197009577453  0.9848982766641754  0.8313045867019990
  0.1394648751353585  0.1539054402633772  0.6676840575012837
  0.0002643910079501  0.1311900281565207  0.5006805674464799
  0.1619392472328203  0.0049316056404607  0.5314494385109405
  0.1347585879294612  0.1847171347701955  0.3178531120064970
  0.0161318758366164  0.1998010471044854  0.1313167679197517
  0.1823992475163088  0.0104979351635240  0.1291839459176640
