Cl O  Li
 1.0000000000000000
    11.7780000000000005    0.0000000000000000    0.0000000000000000
     0.0000000000000000   11.7780000000000005    0.0000000000000000
     0.0000000000000000    0.0000000000000000   11.7780000000000005
 Cl  O   Li 
  27  27  80
Direct
  0.6808268066954190  0.6688203514771948  0.6955367638991743
  0.6817088218362419  0.6971705431813758  0.3379805949078237
  0.6738032763238317  0.6471865273394313  0.9963349655552892
  0.6805319109694592  0.3215957757031418  0.6662685250393289
  0.6725003748613344  0.3145949981319376  0.3346019255071884
  0.6839481508305134  0.3240722479861021  0.9992602956443031
  0.6672573928186464  0.9827511737178110  0.6671042653565972
  0.6775465978117431  0.9991957084807886  0.3349323066949551
  0.6681877475389306  0.0337359104528433  0.9807843032557150
  0.3265634982783485  0.6729176369041595  0.6672862067888408
  0.3460859880453468  0.6810428562508715  0.3084012661580451
  0.3643778225638754  0.6429736155816951  0.9830044763252426
  0.3569747009887468  0.3259881390404106  0.6615573593415345
  0.3491875753003937  0.3506812229371350  0.3401701673332865
  0.3049595523731161  0.3199210157504003  0.0054371737538533
  0.3234052516920989  0.0008209040122721  0.6894119691427130
  0.3296510775815581  0.0187241342628724  0.3319911631194769
  0.3573179362941676  0.9928822313131836  0.9934251899489109
  0.0211157031500159  0.6595091525318748  0.6526742126354470
  0.9984462932227817  0.6627827622937313  0.3194786411117376
  0.9851949877613053  0.6872895120912345  0.0154702958774265
  0.9954133508780315  0.3290062251374685  0.6439864080322915
  0.0071436409961600  0.3485812042384464  0.3338339982515595
  0.9921449080666178  0.3099139333364291  0.9939215277904272
  0.9906782070636191  0.9800732662777238  0.6576952131754666
  0.9813007429910052  0.9589689204524301  0.3353236791527874
  0.9942021842937686  0.9975733630589059  0.0187034050473202
  0.8335636836289760  0.8196943732434572  0.8278442171550958
  0.8295189482641060  0.8212838304374676  0.5078945810827857
  0.8206621980452956  0.8500465279834665  0.1588942443795582
  0.8342397899748747  0.4935303077170918  0.8346158877914831
  0.8356104640136014  0.4951443395549321  0.5082233630968599
  0.8322034548260123  0.4893646019473387  0.1520959343434342
  0.8466324549265041  0.1515453739394071  0.8100077220420955
  0.8408207743304728  0.1634059492696261  0.4917805377354291
  0.8332015011517061  0.1641821051848240  0.1701244618771041
  0.4892313450552009  0.8331831401836409  0.8313245859054855
  0.4846340243301410  0.8425664436440534  0.5189039405477890
  0.5017311748869260  0.8593453788787567  0.1490317454858139
  0.4885428501738627  0.5017197369239593  0.8160640964557683
  0.5148285288838674  0.5172753650120957  0.5079664831708285
  0.5175942896635114  0.4752551936728661  0.1809370824925329
  0.4893342994526632  0.1857340070955861  0.8288600770611606
  0.4785683787575933  0.1483514394643007  0.5135372755777524
  0.4786705639322668  0.1729982485374705  0.1736503159855547
  0.1589430915469698  0.8343619133792805  0.8329602774376405
  0.1735591139986520  0.8402011240540669  0.5075492405360482
  0.1788477635837455  0.8580275787854036  0.1636296709592556
  0.1488165265669307  0.4889539179489678  0.8651391338738739
  0.1519932952282250  0.5110281828614037  0.5101829783938973
  0.1761538846494395  0.5336727657435806  0.1614119308098313
  0.1497303834826668  0.1729666294323120  0.8280031628744967
  0.1446901118875185  0.1628200646597656  0.5099478796184104
  0.1572026035312004  0.1845681285030106  0.1748428744632767
  0.6502062336875467  0.8144812289478905  0.8334072363633123
  0.8369499642866790  0.6539964162027964  0.8210204013107132
  0.8229685708784180  0.7917689139748940  0.6680245392098079
  0.6814362740565658  0.8369735462033053  0.4892322645779508
  0.8279633368728004  0.6640657449345412  0.4973565122748245
  0.8405777809000486  0.8179328530572271  0.3125074381324903
  0.6631501884662480  0.8554707632064292  0.1483527343117526
  0.8362916715211517  0.6546826034157683  0.1487687117774724
  0.8133822735725961  0.8309129613069995  0.9916870368026426
  0.6645634531562256  0.5062350746939028  0.8365720618286761
  0.8476394890132034  0.3292304940657981  0.8215723793897539
  0.8583675558499851  0.4782911135929999  0.6816124549189201
  0.6750707530526368  0.5009794207179055  0.5497292077882877
  0.8098870871621707  0.3236152891641765  0.4860833498786911
  0.7926321244774628  0.5285652073971221  0.3320255554752158
  0.6527712273193277  0.4848731910546661  0.1444477950673847
  0.7953509626669933  0.3441681730994062  0.1691452412670295
  0.8237952019784512  0.4621115648523700  0.9896933011612143
  0.6617953847082153  0.1446632894687770  0.8030437457085212
  0.8232854096965618  0.9974599809799015  0.8095884551368184
  0.8575032733187132  0.1856877322720315  0.6490397159294385
  0.6387818987707194  0.1441402382151342  0.4950727707858552
  0.8309967466975183  0.9908383089454659  0.4753338257746444
  0.7903266423233589  0.1440400570682524  0.3396585532079499
  0.6710808349328171  0.1759268821212792  0.1597274543587057
  0.8510305469492786  0.0227684179623881  0.1703282249453021
  0.8279273048579590  0.1585673861081217  0.9805848202544485
  0.3180801652380646  0.8411930975682709  0.8261460161500024
  0.4865880121551975  0.6542395715748601  0.8241979391947964
  0.4559737953566849  0.8327620109495069  0.6712334937719998
  0.3151575437376313  0.8327919701528582  0.5261049994419368
  0.4646038677652746  0.6877509647936625  0.4818775230676933
  0.4818497617181571  0.8654011055258705  0.3521758322513565
  0.3478531761889677  0.8988965474931588  0.1649825921457264
  0.5284187117759359  0.6828759546418651  0.1409369205606097
  0.4858748616592093  0.8257969010244546  0.9811464528385895
  0.3457818616459223  0.4739416850329660  0.8151510694909356
  0.4970544217875754  0.3381983564921724  0.8091202008855213
  0.5090600462202356  0.5525115176649080  0.6421910420433564
  0.3285554411752181  0.5088519706212192  0.4909058504538041
  0.5324848639226611  0.3528229820934656  0.4897046483410611
  0.5147552502918867  0.5443891322968912  0.3342243990595534
  0.3407768528428267  0.4787336191235789  0.1914868313412600
  0.5254835195557179  0.3345613699334529  0.1843645975402537
  0.4765531365073065  0.4944258449848327  0.0106934274199853
  0.3126636222429894  0.1676404296295047  0.8466797302436285
  0.5162616719101224  0.9869349461017471  0.8312917927234388
  0.5049306558631933  0.1338631687236654  0.6797740124538153
  0.3149249348148552  0.1545693506636104  0.4779627863541212
  0.4749326674892866  0.9880132357750995  0.4974130299070925
  0.4940991488040302  0.1999580295655820  0.3336210247526014
  0.3288704379072099  0.1608473624539671  0.1568653889101811
  0.5214770429032354  0.0057679320150815  0.1309968516214318
  0.4950473575900953  0.1867169928487846  0.0112913108932150
  0.0041579792843676  0.8597486135616996  0.8451667904743935
  0.1477729645191184  0.6512757966552289  0.8523195097890799
  0.1130013920666516  0.8434380135491134  0.6858173505654895
  0.9955306371106105  0.8080441297391980  0.4880367709080085
  0.1635113235049921  0.6684644442384646  0.5348168118931832
  0.1758820656071423  0.8235789483266281  0.3324228792883085
  0.9645773195791666  0.8589121849924624  0.1444993026301732
  0.1513052153223386  0.6890608297466686  0.1285518668660477
  0.1852299240911576  0.8451244737853256  0.9997023611925732
  0.9971618676566585  0.5291787232992624  0.8505971794796660
  0.1295869791048624  0.3312703312026197  0.8755906853608061
  0.1731550493648053  0.4759795586274058  0.6694611639813173
  0.0095055009813506  0.5259517932150598  0.4980724562640981
  0.1648696393723366  0.3243906657352333  0.4680055212370738
  0.1876130370188100  0.5459079019651568  0.2968693817497281
  0.9956524981945120  0.5059147946159147  0.1233628923602117
  0.1521835058054476  0.3458112734615792  0.1618410457910746
  0.1507638444207006  0.4940456869855521  0.0187206062858660
  0.0147592989543363  0.1438650183984026  0.8398686268179654
  0.1578208461049506  0.0195588991347952  0.8634383418025450
  0.1668958531687154  0.1944618720118715  0.6823382773482177
  0.9867123252581943  0.1782777889053290  0.4790628154274391
  0.1315883854663042  0.0098750421123849  0.4927063580898006
  0.1800366378891636  0.1841322018515458  0.3130574324264441
  0.9802917301798952  0.1948333661334263  0.1628864195609815
  0.1596999359216292  0.0342365100163396  0.1550756301505221
