Cl O  Li
 1.0000000000000000
    11.7780000000000005    0.0000000000000000    0.0000000000000000
     0.0000000000000000   11.7780000000000005    0.0000000000000000
     0.0000000000000000    0.0000000000000000   11.7780000000000005
 Cl  O   Li 
  27  27  80
Direct
  0.6709379065524418  0.6792810968298116  0.6713530503303232
  0.6853641941304681  0.6609415300129710  0.2988297289269326
  0.6840980534201911  0.6788387127554625  0.9995823957862283
  0.6807771162141215  0.3201724338237204  0.6698216896995682
  0.6411033982638490  0.3256426807150732  0.3299885149744679
  0.6659186063996393  0.3455536684757987  0.0063835714302741
  0.6853991735246512  0.9828456437736764  0.6703879186429058
  0.6421399866998000  0.9963884182507122  0.3247460794848140
  0.6456248088452825  0.0082381479191604  0.0205711911908939
  0.3230934384241836  0.6534041588185011  0.6805665984668824
  0.3476176981614831  0.6361750663107412  0.3326735883321133
  0.3405594110654676  0.6579620872396951  0.9868508692186199
  0.3148718840445334  0.3244686847978059  0.6569223093572043
  0.3245544961405883  0.3259070909273524  0.3367404692162175
  0.3342773709768225  0.3504571398707798  0.9811396392504801
  0.3394124796447412  0.0008129483927330  0.6692745698697196
  0.3253413300826564  0.9919179471711590  0.3511502994751056
  0.3419896998703224  0.0095324569859838  0.9888639733331944
  0.9931701912505655  0.6794632002036951  0.6515105031550913
  0.0100357924636623  0.6593164861436286  0.3364501280988755
  0.0052314764797472  0.6778235006159564  0.0101629046903217
  0.9959868064494706  0.3392406368058491  0.6585696606874204
  0.0018803966208128  0.3452121740430050  0.3338498716750419
  0.0188994131830554  0.3346084783855409  0.9858589741448978
  0.0246763092209391  0.0056840869295229  0.6665990510688186
  0.0117044308959048  0.0244177769980257  0.3391973060753597
  0.9846916848302473  0.0389812443269372  0.9930255663546244
  0.8411769095983543  0.8331873948293138  0.8347794924758147
  0.8255088940122409  0.8350530434898941  0.4760838211364607
  0.8437884614515594  0.8462485548697742  0.1720467932543805
  0.8405412076915700  0.5243942826871171  0.8628809013359512
  0.8364539626462689  0.4791158050709860  0.4932581368845799
  0.8265550370049365  0.4829866960855994  0.1770747572849088
  0.8342362528609021  0.1608072754544096  0.8294891020180940
  0.8226490856253204  0.1594805078427562  0.5040879030711158
  0.8058234302275531  0.1444987300763774  0.1702163466577377
  0.4986755641742559  0.8393697598387013  0.8447478101097743
  0.4950324035905214  0.8323721806148818  0.4981576407093876
  0.4888767184662804  0.8167604397485768  0.1752714966410367
  0.5215985652205491  0.4912996057927658  0.8303894975350270
  0.5004774887996001  0.5027158841130160  0.5155285131227365
  0.4983036247131919  0.4997150245578851  0.1561599337848687
  0.4920914624420929  0.1800339484523725  0.8276864486553709
  0.4933538784946561  0.1686556859320503  0.4871889690813681
  0.4709073502378765  0.1729494065680149  0.1703273576517768
  0.1618528946532033  0.8202407275281467  0.8451116929742613
  0.1585631210914305  0.8285574833492568  0.4973491470730048
  0.1633281425057898  0.8178944360808295  0.1566458295535446
  0.1809925645052179  0.5137580367600659  0.8553207368556884
  0.1637736034712940  0.4868581538959519  0.4849604092061389
  0.1734923791597724  0.4996000459936725  0.1772433992599890
  0.1722690922559104  0.1677088435285704  0.8238845447792851
  0.1655449110053756  0.1691261263954839  0.5113095285535102
  0.1847754402386348  0.1733244229202339  0.1717293673977926
  0.6639730395398492  0.8108366955378480  0.8349816766130254
  0.8346348722071126  0.6788150287906509  0.8270366578259297
  0.8371891776906712  0.8515634794859150  0.6375092314105525
  0.6775133444068788  0.8044915791805256  0.5048994735986536
  0.8477624283198650  0.6687053765906119  0.4836508681364123
  0.8326220185960120  0.8682242782944308  0.3272723083365832
  0.6743918788155544  0.8629266004629218  0.1429654249254381
  0.8352901690523050  0.6826521954587895  0.1701520355840574
  0.8585681461729001  0.8343511074524577  0.9847576925542101
  0.6828553132768557  0.5055978380191707  0.8761129098063333
  0.8625701289448798  0.3204350221925526  0.8154198552702759
  0.8686916848685464  0.5014233064300520  0.6731658250455298
  0.6872782633413297  0.5005996307649440  0.5105161764604427
  0.8561332726486469  0.3184621276810569  0.5097242008713130
  0.8026488072929853  0.4792147109274548  0.3429171865109192
  0.6643018215539235  0.5110215064463943  0.1354663225647083
  0.8702974981681704  0.3173204998490319  0.1832066774735185
  0.8479912518568122  0.4987015532910064  0.0143885174802556
  0.6882621397735469  0.1713396661836275  0.8474431667615427
  0.8035459639771236  0.9960996459430053  0.8586147917495617
  0.8168093081547945  0.1466595477394344  0.6521506989423783
  0.6529459879507046  0.1491566574601086  0.4931716195635509
  0.7719090452382671  0.9930952249369692  0.4695837671153208
  0.8471871306447022  0.1752690181301857  0.3362911418940645
  0.6540575958512636  0.1966765693118279  0.1755005833331485
  0.8168450162863563  0.0107616130091171  0.1394641049754075
  0.8565852517651505  0.1906155998041277  0.0258859690474237
  0.3457109568098197  0.8594578105397732  0.8368044917098956
  0.4796255188984827  0.6669682286211621  0.8178532713197714
  0.5284783723868703  0.8214007154935770  0.6619670748328551
  0.3485398343435508  0.8236053889769449  0.4826271540608202
  0.5217104264081969  0.6533944828055268  0.5073642658408479
  0.4822024962116042  0.8664767660600378  0.3236659894758887
  0.3123881851158999  0.8405702332140653  0.1740905777186707
  0.4906015993565201  0.6590141815876511  0.1836129688049116
  0.4956747855899448  0.8133100302015384  0.0010220221713334
  0.3431589589946274  0.4667333424426598  0.8142126613168628
  0.5561813238424360  0.3361842110255837  0.8380295802144996
  0.5295273493582614  0.4787052425288449  0.6647742521868616
  0.3430834132196904  0.4855323376914320  0.5033699752967555
  0.4956301301827876  0.3224910534933479  0.5083872106936512
  0.5125641245375383  0.5066452765449843  0.3336858450366941
  0.3320110989422397  0.4961503651840128  0.1770460328865606
  0.5046927891965224  0.3263203862346641  0.1510528005352144
  0.4967984581426642  0.5270629594537393  0.9939056011895755
  0.3225226548722285  0.1686672647592914  0.8381928173873539
  0.4922702460123616  0.0031838171328281  0.8307186439177909
  0.4696322217665940  0.1789924410391144  0.6699301096273715
  0.3377346630435498  0.1920266782819687  0.5130452595336122
  0.4515358912926370  0.0027611342710879  0.5189980722686738
  0.4898433885992755  0.1772975193522258  0.3348680190067680
  0.3217239991904598  0.1605694236710472  0.2264582530413020
  0.4974379251925722  0.9945085933708097  0.1632323907743611
  0.4730734816109874  0.1660604800631059  0.0138719565438928
  0.0014426985745173  0.8309829642584051  0.7987312834705456
  0.2199927469331229  0.6644888616313916  0.8253081737342056
  0.1801558322954061  0.8047965152881488  0.6402659234583713
  0.9818700579804015  0.8658523190972153  0.4625113303685335
  0.1731879086343635  0.6599336862180730  0.4811045787640208
  0.1340373229085536  0.8400151782438696  0.3303304749894758
  0.9988853082924973  0.8279774083957219  0.1286049160172021
  0.1429416637267414  0.6617326149230821  0.1667905724826441
  0.1411124418137491  0.8484965477417717  0.9958164059479688
  0.0111420721047232  0.5266496034183128  0.8414338363942133
  0.1810079287182879  0.3346315550692033  0.8370657035747902
  0.1363794443586477  0.5092481645204635  0.6461913275709075
  0.0141602758625037  0.5094451665252026  0.4506799146548194
  0.1791300129784974  0.3330468144254501  0.5129542888174905
  0.1673363701522519  0.4886014961331216  0.3394561697864779
  0.0009528187489335  0.4664023337310390  0.1675902605423662
  0.1518014604726493  0.3394746222325628  0.1478338460767688
  0.2008867103354109  0.5219893683662152  0.0085562120982009
  0.0085560039193179  0.1465159257476934  0.8157382325339972
  0.1597490905686858  0.0115091052540818  0.8242611400624915
  0.1590642899810040  0.1566806684693003  0.6655467947792231
  0.9733643769938342  0.1368140122324525  0.5159126791776006
  0.1592442375068084  0.0124006407920846  0.4836786006422172
  0.1804993307559915  0.1679830107246437  0.3546547165589962
  0.0585094830082354  0.1149111423029723  0.1692808502903918
  0.1935568673522628  0.1712153557324250  0.0071117129144593
