Cl O  Li
 1.0000000000000000
    11.7780000000000005    0.0000000000000000    0.0000000000000000
     0.0000000000000000   11.7780000000000005    0.0000000000000000
     0.0000000000000000    0.0000000000000000   11.7780000000000005
 Cl  O   Li 
  27  27  80
Direct
  0.6423527714249911  0.6716076629855396  0.6828900930379039
  0.6851307486673662  0.6762793149232385  0.3109808948178026
  0.6860168123491827  0.6750405828354866  0.9874968609503769
  0.6913310082279446  0.3134497188609294  0.6551028104734455
  0.6534066648409220  0.3362674173559843  0.3421525754684020
  0.6516512984370018  0.3278150354115950  0.0041482291887161
  0.6648229836465822  0.9810455637216250  0.6713372979153560
  0.6652035464999622  0.0094835239990359  0.3299669529031750
  0.6564118563349157  0.9773613635839080  0.9904613633422180
  0.3298791509083960  0.6681238529753054  0.6485251864068721
  0.3535673869305576  0.6574029925414921  0.3622097358016944
  0.3380134592296384  0.6518918351434010  0.0121183615816616
  0.3128004819412460  0.3221560050537199  0.6881314151787846
  0.3331074574965364  0.3384667265225360  0.3529243260625023
  0.3213839556430016  0.3200108856083648  0.0115115491777879
  0.3186452796026035  0.0069277382676767  0.6626377525433196
  0.3520587791001855  0.0035872795030047  0.3186359166135409
  0.3345589404134915  0.0160494844720412  0.9888709863703007
  0.9799021568276104  0.6397940659177311  0.6905108236914280
  0.9969117488292295  0.6673185576863075  0.3284111593275248
  0.0206152124262025  0.6541926614753626  0.9848958719936574
  0.0056297096858174  0.3308319271890598  0.6421522160875150
  0.0010373462094286  0.3355886389730301  0.3476274174537822
  0.0134513634192912  0.3645243306756774  0.0257614627000211
  0.0136142134504127  0.0045039346564102  0.6671964097018924
  0.9752418787597651  0.9975576030031377  0.3299709609587585
  0.0040628819382066  0.0153404786698951  0.0102216353082805
  0.8219409892161516  0.8272538619623667  0.8088248188869279
  0.8366643992176840  0.8220787739521381  0.5006891088312403
  0.8451618819087395  0.8313916327992654  0.1576978292188252
  0.8326661411034179  0.4920145464597772  0.8424104623475493
  0.8267673359052083  0.4978929874967898  0.4857720975994035
  0.8434342884960343  0.5055245277547664  0.1795866102256484
  0.8380876233185051  0.1664293008392387  0.8120814652620223
  0.8246731875909602  0.1670913385051851  0.4615990690359867
  0.8275589066402389  0.1595738658896978  0.1607003992825258
  0.4812308802691750  0.8644081323670341  0.8277064853427855
  0.5022756416923985  0.8332801962018687  0.4971423440085588
  0.5072898811689591  0.8401921892690875  0.1670117305652583
  0.5044628254786750  0.4906231034057540  0.8164504077896443
  0.5067768095688649  0.4994796107121049  0.4970422235897918
  0.5004140820582214  0.5034201771172149  0.1662939343684802
  0.5045454966857602  0.1783253919953223  0.8208706048462426
  0.4970481655617150  0.1694362838126221  0.5172077228800677
  0.5055426523324357  0.1653720142374588  0.1652006157518590
  0.1770859182842105  0.8294138395531678  0.8368616130328097
  0.1580696783257323  0.8310245111019835  0.5052586160796755
  0.1759438653553812  0.8414464272688439  0.1562299193467892
  0.1624984785319418  0.5056584939762381  0.8404162320250186
  0.1690872765716571  0.4875512324415988  0.5273315044881739
  0.1723219596118621  0.5145489685415234  0.2069768118894737
  0.1495362243479502  0.1803237315869616  0.8397830402136500
  0.1649321577366018  0.1628730219452227  0.4893195101886439
  0.1631741597810359  0.1707526567952750  0.1666845578462288
  0.6571602696229565  0.8533845220377342  0.8212489814874862
  0.7993166895243516  0.6682869686919297  0.8294973979366278
  0.8280012502291780  0.8197721582065561  0.6577876004332216
  0.6716824671371165  0.8319207771071033  0.4981434267399977
  0.8339458849114331  0.6626765815540904  0.4750445570729511
  0.8029030490779486  0.8518048623129276  0.3251602618806412
  0.6522252196082268  0.8429606625711968  0.1595968378571913
  0.8582911384087090  0.6671090052044888  0.1553532381587250
  0.8442993807355047  0.8340195407580839  0.9837059754316384
  0.6666620333928360  0.4854806061505224  0.8198590363936307
  0.8262721993417150  0.3343069316226333  0.8489700704067022
  0.8795434685286642  0.4781396701650524  0.6848840804479754
  0.6705843003926557  0.4935579312572826  0.5087353006577612
  0.8049955779757995  0.3271172896140869  0.4761428047882317
  0.8186572985872216  0.4950782798565356  0.3300580248328217
  0.6625113477101683  0.4802970162042077  0.1767723681676085
  0.8415089643412109  0.3298293060120434  0.1726103668128643
  0.8404263035087548  0.5252248091994902  0.0203486557491813
  0.6552399251735552  0.1489786215615573  0.8355485092470092
  0.8130805953104473  0.0150683028499229  0.7980369146142638
  0.8539750698264610  0.2077740743272438  0.6694123381292222
  0.6731469863560705  0.1614822975072260  0.5188516329504395
  0.7897299063936108  0.0090681702616629  0.4775679317033199
  0.8369386473845770  0.1291770456211785  0.2980990649006450
  0.6550795219793966  0.1385614725517167  0.1487022039225886
  0.8319071206379747  0.0013813720053642  0.1449044700437260
  0.8376037416989734  0.1510839236062423  0.9859762757645096
  0.3118324960324281  0.8743047908254103  0.8140017692260135
  0.4867339405852792  0.6574721416216596  0.8161871716542531
  0.5017949179348417  0.8398446625102135  0.6544718858450335
  0.3403375646723120  0.8252853803605539  0.5219961752254263
  0.5143709413080625  0.6717989565474779  0.4870194530794713
  0.5007205566114219  0.8613484070258592  0.3169017038363113
  0.3391170307763254  0.8253981727126303  0.1418035406765906
  0.5173584406779150  0.6568756700771013  0.2100632171157952
  0.4948948680635533  0.8379913214142530  0.9923890071845135
  0.3341748755721523  0.4905539138401768  0.8105480398753604
  0.5160995468560161  0.3354866562254063  0.8035198536816309
  0.4913800867147197  0.5220290123955269  0.6549011931319740
  0.3331754324998156  0.4851297191026241  0.5356361956571236
  0.5348661132914311  0.3353528721882792  0.5070783947708006
  0.5015653656605156  0.4628250517222534  0.3413182521404813
  0.3261123681254280  0.5482039635093618  0.1758126615251220
  0.4850733505260148  0.3190668670622278  0.1570113788506886
  0.4967805165166411  0.4861497894913221  0.0072192531221853
  0.2952367167922664  0.1382872547488809  0.8316836100730658
  0.4947192828406694  0.0390071840449861  0.8297034686731919
  0.4780760951854748  0.1453203497985650  0.6791255167097772
  0.3360318198695969  0.1668144992720561  0.4944062995198064
  0.5332943482215619  0.0104131752853225  0.5054922573804048
  0.5217785972491036  0.1649954898037197  0.3416955356756565
  0.3439937615580451  0.1837404572729349  0.1544774678923844
  0.4891283691850082  0.0067187222175397  0.1725808124636125
  0.5248525329691655  0.1636730541309293  0.9762327938546189
  0.0055455310297966  0.8508210668515305  0.8386401370912122
  0.1601366204445047  0.6578105186778882  0.8559793903994025
  0.1479650766805825  0.8414364678580001  0.6783736216764822
  0.0032922310898828  0.8320722735110765  0.5032255197636079
  0.1272868397948444  0.6859366236380845  0.5329086935898673
  0.1792997009848138  0.8246821477525367  0.3188534447211164
  0.0063160547286298  0.8645765516723597  0.1660389977421256
  0.1802191246444158  0.6751268572440561  0.1597671093700214
  0.2170876490257687  0.8655386469540324  0.9774728796732655
  0.9883368415871822  0.5101190954719507  0.8732100618381499
  0.1420608363160893  0.3517176619220623  0.8569450483971492
  0.1420403102132527  0.4801835760855724  0.6889276012505476
  0.0139568667780657  0.4868852474481840  0.4942606735002736
  0.1837451811799161  0.3258408453669815  0.5129353785405483
  0.1949049641855293  0.5268533752994969  0.3618344360516058
  0.0130440612178188  0.4961736126223010  0.2152418678420980
  0.1801183969444999  0.3242540804527317  0.2162970390812089
  0.1635839834644457  0.4755805874031217  0.0203215495020614
  0.0014266792147355  0.1647675164603811  0.8254036752257372
  0.1695869778651205  0.1363843797538661  0.0078647781912272
  0.1813991933731733  0.1735241462604246  0.6466846387004508
  0.9918277106081890  0.1989765947485768  0.4862058987668467
  0.1453824718954801  0.0016144949030711  0.5198795979940746
  0.1743503798630824  0.1530759980806942  0.3362296814512816
  0.9997244628793368  0.1806971892508981  0.1559294669983163
  0.1912033629125550  0.9780923479029721  0.1425971154394127
