Cl O  Li
 1.0000000000000000
    11.7780000000000005    0.0000000000000000    0.0000000000000000
     0.0000000000000000   11.7780000000000005    0.0000000000000000
     0.0000000000000000    0.0000000000000000   11.7780000000000005
 Cl  O   Li 
  27  27  80
Direct
  0.6915901650512051  0.6643394228469808  0.6619037997700964
  0.6613740817739838  0.6612316413242140  0.3144589023951822
  0.6760135655207229  0.7089170170463338  0.9942210842165320
  0.6545832210532876  0.3342498110025910  0.6719081494188970
  0.6491471236052143  0.3372675124882544  0.3361069166691277
  0.6613167949189273  0.3054458790665741  0.0036452886949147
  0.6860167815780452  0.9867758640808802  0.6660424208006037
  0.6622894973780024  0.9814977976349771  0.3255299616249250
  0.6510857674599058  0.0080241051744320  0.0045964143282487
  0.3324790729205178  0.6574540286940886  0.6542406404069614
  0.3555643394898266  0.6829980956649215  0.3420690208057691
  0.3365125330987213  0.6665577803989066  0.9956732142674616
  0.3411216958061870  0.3468079398246209  0.6619964303880255
  0.3385990499131969  0.3445771937372553  0.3550017611259188
  0.3242868502203647  0.3056948845803734  0.9804295920516581
  0.3485944522864022  0.9893366345783375  0.6588389732672696
  0.3108714023575715  0.9983920919334881  0.3461569945884489
  0.3079646916232422  0.9934566462371348  0.0159641791082920
  0.0096610442892119  0.6813394893907440  0.6735289423201963
  0.0035713450061948  0.6526928230296156  0.3291130621030223
  0.9984017384990669  0.6948188637158230  0.0012678899033238
  0.0085814318816069  0.3369691350170406  0.6545271556530645
  0.9915701540422149  0.3212832451224414  0.3326349688840043
  0.9946212901506386  0.3184715738879322  0.9987816026760120
  0.0100546080198569  0.0182231731978176  0.6617512102600549
  0.9861729845809621  0.9716428695128907  0.3477825647681205
  0.0034672721992831  0.9814105920619792  0.9712727310800211
  0.8273694851214298  0.8416456805072091  0.8177125476678089
  0.8442744109518481  0.8368026538292593  0.4983574803257901
  0.8409625424776037  0.8384340539079616  0.1730011189703138
  0.8301120477611816  0.4963534733493076  0.8360014267514122
  0.8329369577247392  0.5098692440579174  0.5046764835937050
  0.8398433638053873  0.4986944207225137  0.1734989073281578
  0.8174052160284641  0.1769149048492999  0.8177855833473301
  0.8226114778043417  0.1770687494070493  0.5116034562625994
  0.8366355428346733  0.1772154280472403  0.1822272378266573
  0.4757990030180074  0.8361942390887706  0.8610332318303497
  0.5188417143559411  0.8476017320750652  0.4981778870473227
  0.4975768742443163  0.8426500425568526  0.1730974135178419
  0.5111112277560858  0.4964452537736281  0.8262447668405880
  0.5254709168347707  0.4971824121177071  0.5196117132600122
  0.5032457223141006  0.4990674532896460  0.1347100384974036
  0.4965866011173297  0.1523618397428324  0.8232896557986825
  0.5027441080850177  0.1706051727402599  0.4897438449936337
  0.4753142712048671  0.1647020558458924  0.1698092290084091
  0.1789715157234561  0.8148551892207369  0.8242723176686015
  0.1559351150439376  0.8396152562281970  0.5185255706823018
  0.1672844102534520  0.8286335078127687  0.1820246083499375
  0.1665083656731313  0.5121657789364258  0.8397043842856194
  0.1474337558748807  0.5027209376529136  0.5089326337692509
  0.1824888071677056  0.4842818981838650  0.1454276803411271
  0.1691466783823030  0.1730815438096953  0.8347753665969697
  0.1752761694463166  0.1557319363579142  0.4980618558624517
  0.1626007442703553  0.1792290306384247  0.1782496879995727
  0.6533131937436569  0.8640401040414034  0.8126290376548511
  0.8275094026981621  0.6875034740240215  0.8403587904517931
  0.8509868919189120  0.8271439686104757  0.6488832465957999
  0.6732728652098280  0.8508214557562995  0.4901379704593415
  0.8255774389361097  0.6793984568968662  0.4822999546107015
  0.8325596337041541  0.8265515860923206  0.3409272512748093
  0.6556013076568991  0.8307489514526422  0.1528919652493136
  0.8314989159638823  0.6622837356721700  0.1647347674845716
  0.8391810224988664  0.8532594871425274  0.0141789698965742
  0.6720317444828900  0.4593747476821143  0.8553545862913617
  0.8042744210829169  0.3212429216541471  0.8434058843450687
  0.8382977927957453  0.5333036972879074  0.6841246218664937
  0.6655775604312054  0.5212448750265940  0.4960157637297953
  0.8017662689666832  0.3484746026953756  0.5331669167578977
  0.8471490369988045  0.5040852554822808  0.3285360235552325
  0.6549915164124726  0.4962335150796731  0.1585026155423176
  0.8362427533874933  0.3285619550328427  0.1818408045888370
  0.8398046597534902  0.4707263303172900  0.0045358456246493
  0.6485011788897167  0.1777169410627983  0.8145059412593934
  0.8158540580322511  0.9990290732424849  0.7941884192548150
  0.8173301560784462  0.1824647055711730  0.6754492057987779
  0.6479227638379891  0.1979633909302372  0.5201040968156301
  0.8405210895676831  0.0135462328534461  0.5106762594042901
  0.8178426203973914  0.1900569749815135  0.3298271032780290
  0.6520745021413150  0.1475389646776774  0.1870606897051576
  0.8159780243574691  0.9949209956071423  0.1671887906077234
  0.8251303180687981  0.1796026097585911  0.0019034912291678
  0.3414044863945763  0.8472705614218049  0.8062344481265893
  0.5075951913595442  0.6531458547667776  0.8769328239612859
  0.5359131566774179  0.6760589368876371  0.5522468402662022
  0.3653013234914229  0.8497693209229339  0.4926791586700813
  0.3121203367686268  0.5226351844891388  0.5013355465951281
  0.4728621104105722  0.0092680710236744  0.1476802075790372
  0.3171410943961868  0.8187665656452842  0.1810765817482170
  0.5066847149755377  0.6824108952792383  0.1407884572167855
  0.4962138114626570  0.8649680296370917  0.0137966611098908
  0.4889430366926028  0.4959412104199494  0.6696357843301192
  0.5021488511027576  0.3090795053362690  0.8421618486686157
  0.4999052711404428  0.3358855025347460  0.4941274432396517
  0.1511259847754552  0.4915999194273122  0.6703083279599434
  0.4892870007354024  0.2133492636945201  0.3342750125977274
  0.4917841003347241  0.5376443000285756  0.3728748550494996
  0.3383770279251187  0.5016679526259391  0.1707742797250068
  0.5014120976127778  0.3352253879257716  0.1499407812921718
  0.4926133225009931  0.4713652305714592  0.9975189607116984
  0.3344434250105174  0.1366041995804776  0.8473598514208668
  0.4867051651730888  0.9829902479912784  0.8306293367364446
  0.4742820956785988  0.1425513139940910  0.6538875671469266
  0.3265475959964915  0.1387467482023020  0.4637652481179786
  0.5275011791721429  0.8132917745095789  0.3439056819128369
  0.5107562921671941  0.0037898234460959  0.4461611797434096
  0.1565436714833611  0.1292149847436613  0.9978473402438653
  0.3256009863841187  0.1650112834069686  0.1614493562257192
  0.5231607788585244  0.1527513903572177  0.9959023986938833
  0.0037014505642786  0.8616566469877666  0.8133989082101568
  0.1461787992590978  0.6634920227316513  0.8166213848992668
  0.2239601785325745  0.8366047611455018  0.6743356950839520
  0.0018888403210499  0.8301410225370728  0.5156119571855786
  0.1309892706116424  0.5100950716745296  0.3530331985532860
  0.1591880165186129  0.6731709506554022  0.5301248025700440
  0.0077293177463583  0.8402116872873454  0.1839233740758440
  0.1538565839765715  0.6701858399247356  0.1573032251516692
  0.1784281003086165  0.8233048181572503  0.9924724908951770
  0.9935402341851357  0.4402039749139178  0.8511050757230449
  0.2079420856067615  0.3468953478246685  0.8034208740778133
  0.3546147946852337  0.5566281921445165  0.8319923995181040
  0.9944470713103399  0.5029963194112850  0.5321072921236940
  0.2169242393828426  0.3228584716948600  0.5256609217561267
  0.1996234067286795  0.3358618995407546  0.1569215894349260
  0.9985997229075814  0.4823335378307892  0.1436989533369436
  0.9916740427670283  0.1647692211409730  0.1998943014990838
  0.1828934385972914  0.4878920631585033  0.9884290523285937
  0.9986948383966182  0.1426895615476632  0.8429216788422575
  0.1798326201500481  0.9976866681412444  0.8294766361448027
  0.1918424955507514  0.1678307683255950  0.6650533217505050
  0.9763535292689921  0.2038300507129591  0.5177541211960087
  0.1524062346510944  0.0162261670943680  0.5115601368739700
  0.1852202565624305  0.1763520361949870  0.3375636019612595
  0.1651703937242787  0.9904705600611226  0.2018513864580002
  0.1780581648753442  0.8336219583261140  0.3564788308219523
