Cl O  Li
 1.0000000000000000
    11.7780000000000005    0.0000000000000000    0.0000000000000000
     0.0000000000000000   11.7780000000000005    0.0000000000000000
     0.0000000000000000    0.0000000000000000   11.7780000000000005
 Cl  O   Li 
  27  27  80
Direct
  0.6739816113477392  0.6628798875067494  0.6818475283767487
  0.6702805971132089  0.6910236441056767  0.3280557332864751
  0.6430188556551043  0.6616214795097696  0.0086279111324668
  0.6698106019892847  0.3375350240076943  0.7132891454980832
  0.6748646791092204  0.3594780959492391  0.3212284559395433
  0.6758687577609944  0.3415284441154732  0.9860812169108343
  0.6708792143844935  0.9982178351996188  0.6531204984769016
  0.6694357475787054  0.0020440007483383  0.3343291499828043
  0.6858929452606628  0.9826130483350547  0.9804300306011339
  0.3100500024270255  0.6514295609567446  0.6786042017015228
  0.3402503368797823  0.6556742942466889  0.3382152635115530
  0.3456152204917817  0.6700578292318250  0.0330301782082825
  0.3502020959810788  0.3356768246625418  0.6590534733610954
  0.3232460396106812  0.3294088734965537  0.3076123016570022
  0.3307655972247801  0.3317988689438949  0.0210645558909753
  0.3557725240193132  0.0046890724650692  0.6766907802572203
  0.3556075054884221  0.0104493789736479  0.3337511600278811
  0.3022201646311921  0.9905312423751466  0.0159549454403007
  0.9979098928101604  0.6759252987227454  0.6621171257870340
  0.9871107149322910  0.6810608324874684  0.3375572136584851
  0.9792298946188290  0.6393686739395245  0.9862392491781737
  0.9955556152994414  0.3204614764449010  0.6642795729878410
  0.9971743946841809  0.2860485946030973  0.3146173301962494
  0.0147499322312679  0.3230119358145158  0.9779786618026708
  0.0325271883333513  0.0035731082711429  0.6721072650569478
  0.0014695969912613  0.0025185639233014  0.3489147881343311
  0.9877546986357449  0.0399006802055245  0.9913187587265625
  0.8435909043275375  0.8380603372621609  0.8271713648097434
  0.8129361616336808  0.8452766186704441  0.5271643153606126
  0.8407646988308620  0.8481117309573050  0.1576346673520894
  0.8392244718953312  0.4936429793275244  0.8125914351010174
  0.8218967164435622  0.4984761275654501  0.4809809888324555
  0.8205009414506761  0.4913232463091237  0.1699043781137493
  0.8459048884177275  0.1529079111253235  0.8354734649124574
  0.8358844255757729  0.1640850218863884  0.4937245813173934
  0.8122577881048262  0.1660637766609721  0.1663716617283149
  0.4959304221447245  0.8340351158648789  0.8419955025111916
  0.4849612242063758  0.8502150289741982  0.5079858098791186
  0.4875372703550688  0.8512757467144700  0.1780360143979360
  0.4975862349256168  0.5130833039550617  0.8201746762649428
  0.5006403732802209  0.5132916418745823  0.5051588351596543
  0.4934550227251274  0.5060476279604945  0.1595442123183908
  0.5029021716770059  0.1402735381550352  0.8457519007865115
  0.5066203517253481  0.1736223116034850  0.5095417046682936
  0.5140574000740016  0.1561113799144692  0.1708485181161161
  0.1748498261459070  0.8416818381515807  0.8470433853634076
  0.1737333397534510  0.8524417265205704  0.5132672530612439
  0.1572415371673524  0.8253119674988511  0.1618178729402865
  0.1701513728668319  0.4799304900120451  0.8149118968567969
  0.1334752047894280  0.5004208442316317  0.4920975941483741
  0.1586388506058158  0.4922444108413530  0.1710237592130155
  0.1855984595709351  0.1580674021313750  0.8168537390588732
  0.1837883366500791  0.1703059897341480  0.4787588256519959
  0.1646271791667420  0.1551653168551306  0.1680551462868971
  0.6881358369710088  0.8151413847568610  0.8672951590622527
  0.8390932991671449  0.6494932652558292  0.8182702425816454
  0.8208900872109622  0.8009823413698095  0.6734678987140111
  0.6551218474986559  0.8233035672828430  0.5098785027935351
  0.8348763388684153  0.6840753761111571  0.5128764473991506
  0.8333879332576004  0.8639505949733400  0.3015289437176082
  0.6618627492234934  0.8409318864179627  0.1532016465418943
  0.8141902376917978  0.6607803951183900  0.1427551051244416
  0.8460282879472063  0.8658705750540520  0.9814508499699157
  0.6712115996000521  0.5090554105207240  0.8384047705333219
  0.8605414977003611  0.3170257023735537  0.8375299617954671
  0.8543595375450728  0.5003579703900042  0.6299767709756480
  0.6646665258030655  0.5315408047710403  0.5017464009271340
  0.8597946228578980  0.3208700956873653  0.4864782597349393
  0.8270383635051851  0.5019812329013096  0.3150623458222443
  0.6631548005961283  0.4860745558236350  0.1529461431198006
  0.8439874994032514  0.3256961184931426  0.1664286854282070
  0.8130613425211970  0.4861192517162022  0.9888230229794880
  0.6769344147212784  0.1320572772427338  0.8295739309768693
  0.8536278852167448  0.9969747952112163  0.8268460240555137
  0.8493574841769023  0.1644844914262076  0.6608643047766252
  0.6721396061665601  0.2102857368981120  0.5119159310484656
  0.8166762038033876  0.0012451405836201  0.4697709027049993
  0.8268339931558383  0.1686198230171577  0.3386250163454955
  0.6725188734868223  0.1883950530770219  0.1620490851164198
  0.8473074649594824  0.0117966195510373  0.1489706378059175
  0.0061597440343962  0.1623518920938745  0.8188302268934132
  0.3465848460597021  0.8435687821377864  0.8255049853368583
  0.4950254112910589  0.6653307122825164  0.7899191197130357
  0.5176800750403094  0.8551226703664025  0.6630529865230693
  0.3082882393283358  0.8763005883028989  0.4878635490066524
  0.4609324046731442  0.6912717386977526  0.5300931513714707
  0.4789288576407939  0.8202668376545107  0.3425434372313714
  0.3262932752028916  0.8804254038086187  0.1571481541809120
  0.5001242247889718  0.6734120859302700  0.1806606227958450
  0.4872659776231009  0.8231353099191572  0.0095786363397932
  0.3465023772796664  0.4836438522966052  0.7916047702410496
  0.4844291244636127  0.3387048094423285  0.8475570642446507
  0.5132458295464638  0.4543252900722118  0.6623580949469615
  0.3408791157814679  0.5139005019545803  0.4961182811797434
  0.5124309797007214  0.3524877636137980  0.4926679121181149
  0.5434255974109742  0.5241195862176711  0.3261404899987255
  0.3394688267691207  0.5050738323953510  0.1795251892315398
  0.4735689132488065  0.3139575155817024  0.1856158952728367
  0.4772891580530553  0.5158709673414801  0.9983991037288544
  0.3473354050744693  0.1384841538854180  0.8153347264781480
  0.5389425669981581  0.9826410224881501  0.8412432835946171
  0.5285759134158577  0.1750319933346833  0.6700140074217182
  0.3458724647865026  0.1970174737431340  0.4878065455494651
  0.4893220696520110  0.0069731656710372  0.4811645496810965
  0.5517431224548730  0.1510591651233905  0.3328769585711753
  0.3439346711254198  0.1683045934940588  0.1800818838608378
  0.5122655968011409  0.9934897567218246  0.1900800189992136
  0.4899385409890766  0.1463477969985464  0.0014811431730405
  0.0316513219141621  0.8504224762147002  0.8204745921817341
  0.1645506313779092  0.6639844104605699  0.8437077114681222
  0.1718450799914224  0.8490895345780320  0.6572702125097308
  0.9966541268024710  0.8451365391520722  0.5314490482355718
  0.1565011703545361  0.6576112781995731  0.4698365700399122
  0.1695015516733330  0.8669293494946470  0.3249672228188370
  0.0069238987987992  0.8087471191118789  0.1486513799845302
  0.1799162715585776  0.6644286163783663  0.2085645438263232
  0.1739662118313916  0.8491709912228191  0.9995061622396181
  0.0113140379688598  0.4683272095833094  0.8171742215639112
  0.1565873435495807  0.3140139320004455  0.7774703419832377
  0.1562264464840762  0.4970099484446889  0.6468058676332595
  0.9775988791515213  0.5154055875542882  0.4512419046550772
  0.1927124545910197  0.3228930504082445  0.4712320616349287
  0.1557603177168006  0.4726669216449592  0.3268885996461917
  0.0084215439392626  0.4672746698958443  0.1523422020171095
  0.1633733257783798  0.3018732279975404  0.1612127172752975
  0.1707191200130418  0.5177005030163994  0.0264520708471278
  0.1820930910799111  0.9970624303091103  0.8226217763829957
  0.1802563085166136  0.1701067610318626  0.9992367861540101
  0.1982319722262622  0.1627326472529518  0.6675861783587936
  0.0160379388584166  0.1566630239888780  0.4498993274908446
  0.1477767871835050  0.9980136996972788  0.5022391488514412
  0.1927694378055019  0.1527924771002490  0.3303569847152409
  0.8322324697796428  0.1569438510348855  0.0054992119370393
  0.0949831344989003  0.0074616164486307  0.1753922564011283
