Cl O  Li
 1.0000000000000000
    11.7780000000000005    0.0000000000000000    0.0000000000000000
     0.0000000000000000   11.7780000000000005    0.0000000000000000
     0.0000000000000000    0.0000000000000000   11.7780000000000005
 Cl  O   Li 
  27  27  80
Direct
  0.6576071738915678  0.6439399061420071  0.6698340711301466
  0.6887709801299349  0.6809779024493441  0.3477510158959524
  0.6562247185985500  0.6866209208275902  0.0022242596785208
  0.6666523027228011  0.3360872498298734  0.6810489750213852
  0.6385923104370272  0.3247368817569957  0.3241511392809718
  0.6528220008644139  0.3242272919021559  0.9905178951724943
  0.6697497199806248  0.0099111810120471  0.6624425283822591
  0.6747122595886997  0.0085072494742285  0.3159891794247446
  0.6542801233885982  0.9991590937545571  0.0061418601022611
  0.3583293476461685  0.6596397027749188  0.6508307865028472
  0.3574327982431792  0.6483487672838242  0.3391771777217610
  0.3151541275615207  0.6672887327299868  0.0109384044689302
  0.3306420842869523  0.3062054748251826  0.6565456259983165
  0.3140696246429126  0.3412164476279418  0.3351607214157298
  0.3284229979976477  0.3197547269678077  0.9964361656292832
  0.3361910550579219  0.9957543542011893  0.6649813684392227
  0.3511199892429842  0.0216549856660793  0.3352870966228389
  0.3476754500803861  0.9871589164282137  0.9684243920993252
  0.9780429767216451  0.6378532081562939  0.6798504449456977
  0.9817111889179453  0.6795827752230169  0.3614479588140169
  0.0013256352840558  0.6524895745264679  0.0524424602113064
  0.0132117667130033  0.2982052946670516  0.6582353655527335
  0.9994032360419544  0.3679149965484539  0.3281682028681522
  0.9903673877002176  0.3358314225245002  0.0004149591175542
  0.0131158795499127  0.9885180900801812  0.6506262542118605
  0.9846101871816823  0.0259725091927469  0.3446701976562018
  0.0250338429487131  0.0075562781915199  0.0138907321389027
  0.8347479271959856  0.8376820256731576  0.8465445859831956
  0.8342067182359874  0.8464246070359540  0.5296542703979610
  0.8246643071145341  0.8326436973776864  0.1640870104305023
  0.8346434748383558  0.4938569288004461  0.8366082518230840
  0.8330493213367930  0.5073573960241009  0.5095402685491214
  0.8126372254146087  0.4976159181420018  0.1851072781807156
  0.8354823325321891  0.1674932398390484  0.8474585845978663
  0.8409190372614113  0.1669986700712942  0.4914423996295867
  0.8102681811669085  0.1764434000199291  0.1747990248022450
  0.5010210251523017  0.8336041732429615  0.8182684420937836
  0.5077072715737284  0.8253287935108040  0.4825272289642417
  0.4991721779368439  0.8280303039448826  0.1601825165256436
  0.4890533355487497  0.4995144409554487  0.8258979175958536
  0.5233488906725646  0.4741965254845073  0.5006316970055953
  0.5071125004163874  0.4787689476824579  0.1521571544425337
  0.5230141573032300  0.1711948309906703  0.8243449782416036
  0.5069289800531563  0.1589514256241150  0.5021878347072302
  0.4962464593025506  0.1539090487876502  0.1507799318887501
  0.1617335330249974  0.8247252370195072  0.8220685646118325
  0.1809086377320568  0.8352088529511070  0.5004051406516046
  0.1592361399064537  0.8552488069851776  0.1996952847287235
  0.1641749753070122  0.5237824078051607  0.8221228960319639
  0.1754382693844742  0.5107888988847001  0.4798174190211265
  0.1670497531742560  0.5362063679786693  0.1727344510799537
  0.1419488293792086  0.1840112567280794  0.8241092721849678
  0.1756237128046771  0.1686529545279615  0.4810553414006797
  0.1743916608095644  0.1562469091483487  0.1481430159262212
  0.6685377892342493  0.8313342372787796  0.8788136439127618
  0.8520109059918601  0.6615051085230395  0.8361770822072866
  0.8014536977160692  0.8504506381414347  0.6822823225496156
  0.6579989512034994  0.8512556500325633  0.4665785280310556
  0.9974840526166918  0.4978606929304630  0.1948972170985056
  0.8030810492537779  0.6816177338679417  0.5218966585734499
  0.6671110024173539  0.8358470649533072  0.1308107159871869
  0.8148469190888088  0.6576710997168760  0.1757854518152879
  0.8246108663734210  0.8054593640233756  0.9811490551247807
  0.6552009235521380  0.4827879748120200  0.8213831466216492
  0.8720604145826751  0.3219879021797694  0.8291035523544308
  0.8365532525957643  0.4808735007470591  0.6812418475143109
  0.6658489507334800  0.4808716384182021  0.5442795437658132
  0.8731757066555379  0.3510883290154382  0.4937946829175744
  0.7914235183757308  0.8537463124517053  0.6737667833657294
  0.6564296152582262  0.4854084334554106  0.1828701961266953
  0.7769823726522587  0.3274681692100808  0.1884958057786699
  0.8004621290559647  0.4675668776661686  0.9928213429347490
  0.6741880545008737  0.1709527484819696  0.8389523570582649
  0.8221401227759664  0.0212693418937526  0.8679021781689791
  0.8564035729697035  0.1579101003952016  0.6776592531038377
  0.6708121785935238  0.1814524776067232  0.5070835329035038
  0.8096801710730266  0.0066849651157791  0.4708063384196475
  0.8167026083385455  0.1463363338303078  0.3383542105513269
  0.6570481108657885  0.1560728421283373  0.1798409765419056
  0.8715868972280865  0.0232210726572053  0.1405474267122661
  0.8218730810120416  0.2002414122311268  0.0125526311428059
  0.3375389155681509  0.8431584061041154  0.8183247977844118
  0.5137725932629965  0.6792684465002892  0.8212607997128284
  0.5174274136447921  0.8721943801671694  0.6581727751089754
  0.3560662537162656  0.8117980836859284  0.5063978315154510
  0.5207665692853317  0.6427982985526872  0.4807520651948638
  0.4784381015494544  0.8323131744909847  0.3196617931442061
  0.2595804126262128  0.8634014349544151  0.0777208973468859
  0.4609101457455613  0.6805119963518231  0.1715553540010347
  0.5174647007073413  0.8159821698317916  0.0161015442225521
  0.3284311355650444  0.5064735185544208  0.8452053286225774
  0.5223084561226697  0.3319997213867029  0.8231734114489323
  0.4859142183186941  0.4874976425496468  0.6663642285863398
  0.3211877289321056  0.4758768724238197  0.4906183595957894
  0.4690360533442425  0.3091736828972017  0.4900643977316618
  0.4634380952272528  0.4748732391115548  0.3309010287668148
  0.3173401575136142  0.4722139954454473  0.1536237991455093
  0.5159047978625828  0.3146064807843654  0.1386465861091005
  0.5030882506689437  0.4871333953164703  0.9932121713698854
  0.3477142351031030  0.1703723496451552  0.8362544903110805
  0.4743293182660686  0.0156993996804373  0.8344427682165322
  0.5072854540876255  0.1732449716643201  0.6645759475441434
  0.1357412115953747  0.3466071204460692  0.4912612274201320
  0.4710084215454091  0.9911516912997717  0.4883070475426550
  0.5124445503609302  0.1767730119849071  0.3284826125617000
  0.3342604273143972  0.1935931613669233  0.1540922153384461
  0.5015474974230839  0.9932690263673906  0.1772980272158336
  0.5247246253875332  0.1781985842395045  0.9966738636946049
  0.0089793789427507  0.8139941742623905  0.7875924040743018
  0.1699175169442288  0.6827950495888235  0.8435084231506021
  0.1940544325219843  0.7913153812088195  0.6617462198168035
  0.9917518400625972  0.8627421705390492  0.5111707779488048
  0.1856244592519936  0.6643177109219771  0.4876983898897066
  0.1064169308068280  0.8586418082209296  0.3371155391916899
  0.8341869514774995  0.8462929484828485  0.3397675764548292
  0.2004116540168770  0.6782486190240506  0.1760896996709422
  0.9927112550836151  0.8359354850886032  0.1436538317310951
  0.9916346582064656  0.5078923297455593  0.8343592873012480
  0.1532867886739415  0.3287918599305792  0.7834198967556799
  0.1752774208508063  0.5074675568245313  0.6637034869600648
  0.9959111763387155  0.5216050619734981  0.4913128463177978
  0.1962894700628030  0.1855082654885054  0.6556751491993248
  0.1485746310836037  0.5361375427817815  0.3215514091674674
  0.8070652895377667  0.5270340339894232  0.3377304518404731
  0.1570310109622238  0.2065572778797719  0.3222476772475131
  0.1433391084776960  0.5367474959678477  0.0301866663117405
  0.1554089124064541  0.1665283814281479  0.9837384662765157
  0.1613642858436939  0.0067220649333074  0.8413748420470782
  0.9996880078850923  0.1499798891467891  0.8472025548654436
  0.0330770540369277  0.1576614187646817  0.5177017628231344
  0.1769700955974436  0.9809078312309704  0.5212767459765399
  0.3218052933752395  0.1643339811175506  0.4864595363457250
  0.0264602274418474  0.1656443622595332  0.1569457282441221
  0.1727291679360330  0.0060354697033134  0.2127632463180528
