Cl O  Li
 1.0000000000000000
    11.7780000000000005    0.0000000000000000    0.0000000000000000
     0.0000000000000000   11.7780000000000005    0.0000000000000000
     0.0000000000000000    0.0000000000000000   11.7780000000000005
 Cl  O   Li 
  27  27  80
Direct
  0.6674835971979188  0.6509299299065217  0.6702044210000023
  0.6714479285386602  0.6836014937816524  0.3456676260405259
  0.6690372248041376  0.6897576242454028  0.9806921210673680
  0.6777598063744267  0.3302675684350278  0.6658135758656061
  0.6676118549765900  0.3064803051001676  0.3297089859392010
  0.6544212225951606  0.3149974637004512  0.9957362558538132
  0.6668526320840968  0.0017012536663864  0.6942836043831919
  0.6516060696153969  0.9839895693789521  0.3448877151035564
  0.6637978054775240  0.0080704019100118  0.0107754647045215
  0.3071034291647342  0.6655618428816030  0.6774408236570227
  0.3276451188841172  0.6910002024470981  0.3763953639284934
  0.3329970674076427  0.6383988048529177  0.9835842570541211
  0.3190689730415597  0.3457243109094003  0.6433329588936620
  0.3311592929518018  0.3257833032172087  0.3376791664085708
  0.3541304513932116  0.3413676354609884  0.0132404233164473
  0.3336182148095557  0.9873558325317808  0.6553838865000383
  0.3304112642751555  0.9574779390657674  0.3116079591576917
  0.3630018978158280  0.9942469041308316  0.0057911812683894
  0.0021786520793568  0.6669349460449259  0.6790448151131995
  0.9943874177544801  0.6583620795205731  0.3334616190713972
  0.0082262629832402  0.6546740611026316  0.9753328446846447
  0.9725733750284410  0.3180071288322429  0.6708311756311912
  0.9858194724214799  0.3528217271541170  0.3242791637296675
  0.0412592186049780  0.3351278823830192  0.9944023349762923
  0.9777430329330622  0.0314023290022665  0.6478081351369509
  0.9855468727698726  0.9918371897585145  0.3138689478462781
  0.0061555057471659  0.0058392471730396  0.0141316387666778
  0.8412709439975002  0.8469152650312974  0.8276300751996607
  0.8335637365083570  0.8327265863241742  0.4954973671429495
  0.8360437917500965  0.8116374933770729  0.1679593381383001
  0.8201995026891306  0.5102484744598434  0.8329130973127733
  0.8361387705218017  0.5118714535732792  0.5189260714447288
  0.8390276474330552  0.5137914336539912  0.1502029636515592
  0.8522103446741377  0.1519545094792074  0.8332402194250403
  0.8133295334774231  0.1633494013816600  0.4859749558140036
  0.8368237836578857  0.1758463769919846  0.1577668629108884
  0.4933231773457954  0.8296894518417424  0.8479061401444663
  0.5173884742333776  0.8342378257061919  0.5066340532221952
  0.5268128703848731  0.8335199384172415  0.1657639054497494
  0.5100975782145862  0.5220964487062205  0.8577110586639318
  0.4982449886314767  0.4953486290418186  0.4980577049525882
  0.5134491628759758  0.4923129520341444  0.1878128062528618
  0.4929046796633072  0.1849392178788254  0.8266542148786105
  0.4936619997415334  0.1497197047294959  0.5074143285278541
  0.5012890866044171  0.1572130682833675  0.1725820735794461
  0.1673438568663115  0.8579469724425843  0.8132643942803056
  0.1560780425720810  0.8316156666755840  0.4940623213024274
  0.1698546708982483  0.8355465570677196  0.1706268914347966
  0.1733358695995417  0.4906375848002539  0.8416023189052766
  0.1334501093147396  0.5214669005817461  0.4843854581345832
  0.1657156247709368  0.5150721086264346  0.1658715966401740
  0.1792804840390916  0.1701222056095256  0.8247127775306337
  0.1603566014220253  0.1616154618809475  0.4896476707469900
  0.1757610063827056  0.1668393348101466  0.1797928692146831
  0.6770553197561645  0.8757751275611384  0.8385007316502300
  0.8393331503364175  0.6774348775967293  0.8495994829003675
  0.8320694200276918  0.8088525020277104  0.6689576728010836
  0.6778370525365809  0.8476959047056456  0.5433629029392757
  0.8439335074672225  0.6733430981855156  0.4734075963185086
  0.8001328282845035  0.8424977400117546  0.3360366125994319
  0.6733395688324183  0.8492487630890758  0.1636475913735624
  0.8145595612020391  0.6591413831763935  0.1464320513567779
  0.8381758344080429  0.8494445505315167  0.9954853880111569
  0.6671881346762203  0.4736786514329839  0.8307323911920862
  0.8464389875464003  0.3305043878404370  0.8256485572958489
  0.8125893792130090  0.4959081374071071  0.6742542575265242
  0.6797351300105184  0.5404835858797337  0.4904311848854435
  0.8266237275374640  0.3438086222821414  0.5316875989662674
  0.8531378654157266  0.5092517641526773  0.3280082950813968
  0.6795020150201182  0.4981956035537902  0.1873768593586921
  0.8621453023303114  0.3335266641774230  0.1650407145720977
  0.7940185597346252  0.5050709573250187  0.0069730383136137
  0.6480643249835473  0.1541069770264655  0.8432404395620278
  0.8665368357166766  0.0031091553047166  0.8024634537056426
  0.8223860387088482  0.1466298683646824  0.6739403741433058
  0.6435703635100490  0.1487463545038617  0.4583397364492576
  0.8274111687606811  0.9947829410797109  0.5104423537930507
  0.8360023346903240  0.2018535970524631  0.3335489056152149
  0.6475587026988811  0.1616467874668840  0.1442260924616444
  0.8132698579831803  0.0342924609612278  0.1687398259923610
  0.8358618503178529  0.1613098375213554  0.9989153541657864
  0.3396560671481836  0.7995016678660650  0.8454843029222120
  0.5120568291429342  0.6735474685348626  0.8552935938659506
  0.5048836242108208  0.8134201469472887  0.6657501757136494
  0.3099366386373283  0.8554827874815391  0.4960537986170829
  0.5123344780842617  0.6772489281089021  0.4599801242889650
  0.4908183855185863  0.8076907327042431  0.3270379407760978
  0.3229275564915532  0.8529816798266341  0.1540404845670345
  0.4896214748592964  0.6766677600492991  0.1827675347095867
  0.5084281218505460  0.8222236183666257  0.0124626973264453
  0.3263197277764016  0.5243123366481403  0.8178376261864546
  0.4920233932598630  0.3497136217480709  0.8412782736841647
  0.4827027612140285  0.5037671246980930  0.6702947844349753
  0.3056238493732848  0.5174724885814239  0.4964399889424438
  0.5134443451121935  0.3295464827986926  0.4838344112199710
  0.5263023493656049  0.4684458717135992  0.3527681596618074
  0.3179602800905160  0.5245510791105212  0.1972274656632682
  0.4960735536696644  0.3237691743156952  0.1777092268643128
  0.5157662238573207  0.5065589175963247  0.0327543187900182
  0.3336134172884785  0.1748060031702046  0.8204892585954947
  0.4522994734012723  0.9917962748236845  0.8407437043313957
  0.5029272882319882  0.1795726743650187  0.6666934047942926
  0.3358610255490817  0.1716343559132670  0.4943576218824863
  0.4788595217344000  0.9902397721207759  0.4853496181721625
  0.4692321722229050  0.1638929180100245  0.3403505961830685
  0.3226964252862398  0.1733048244125554  0.1686134406638994
  0.4962935918726560  0.9916078538280978  0.1903948239995202
  0.5021317094413744  0.1512315210286053  0.0046732763051244
  0.0149815686578308  0.8633100746965466  0.8285160579106571
  0.1643585133445378  0.6644464698379202  0.8564658893960007
  0.1556164178066607  0.8387976974270628  0.6508088732358521
  0.9994303406695406  0.8561546833448044  0.4652456971903962
  0.1110578315072716  0.6718010089211280  0.4988992346834770
  0.1718783948419162  0.8108692422381647  0.3355488241378416
  0.0080722400366533  0.8473565559995785  0.2024280594817553
  0.1737450151523351  0.6771208322718709  0.1133705117704576
  0.1443581641627354  0.8384805347256395  0.0104528693671528
  0.9861424865298077  0.5048915664736010  0.8409106661619636
  0.1915251343320023  0.3336597194771713  0.8217472212529651
  0.1551810478295825  0.5295466548131024  0.6833519769052621
  0.9877869456835519  0.5221342215936888  0.4889774347855320
  0.1780820754196340  0.3427251517414867  0.4694614834122378
  0.1311047490318507  0.5375138191194321  0.3130916077328394
  0.0089004260294618  0.5119559871092215  0.0943318833802858
  0.1556335633777677  0.3278489093174533  0.1856074445175248
  0.1816474028027703  0.4731401145100413  0.0185764458918400
  0.0200142517689546  0.1780255446670943  0.8794403069129102
  0.2122229155493860  0.9988945912361876  0.8302236515308552
  0.1167637844552603  0.1737849611316681  0.6842561780507290
  0.9822764765374297  0.1933722882826760  0.5117470770989951
  0.1498997665890969  0.0156492877294464  0.5100892805330161
  0.1758594466569602  0.1743946309198648  0.3437583745934464
  0.0259415080889952  0.1459031451350139  0.1617008605582366
  0.1626293511221975  0.0286299564491127  0.1276698472242832
