Cl O  Li
 1.0000000000000000
    11.7780000000000005    0.0000000000000000    0.0000000000000000
     0.0000000000000000   11.7780000000000005    0.0000000000000000
     0.0000000000000000    0.0000000000000000   11.7780000000000005
 Cl  O   Li 
  27  27  80
Direct
  0.6922011157850034  0.6623598569555263  0.6653540207879088
  0.6551618644299585  0.6752258773201046  0.3485657284357081
  0.6685400657156123  0.6654655332369764  0.0106248822563348
  0.6829659079541295  0.3252575445867069  0.6636174396141981
  0.6487933879911041  0.3405580943495538  0.3337732098394184
  0.6581304975987818  0.3311273824741085  0.0162396696521664
  0.6672042496148388  0.0109184727759046  0.6520881665148218
  0.6684203908438473  0.0050885269341476  0.3485860925969049
  0.6283805633315414  0.0006133739383401  0.9917343140709681
  0.3243037990196107  0.6728817720849237  0.6696519114210965
  0.3315371652708859  0.6629301344398572  0.3422398021626945
  0.3676898266337851  0.6705087602670499  0.0223521644350221
  0.3158659513373879  0.3356295624858234  0.6551467582645186
  0.3405861402160631  0.3310053392058623  0.3323637102925649
  0.3335112541019746  0.3413816485584320  0.9708022184829150
  0.3272351856112948  0.9894003432880421  0.6708182960812962
  0.3444515252149256  0.9902468596827826  0.3533400918584096
  0.3108966304231490  0.0062353716907933  0.0116263331519704
  0.9868441662182207  0.6755174937278595  0.6661453890958894
  0.0034309311288266  0.6519796002754882  0.3235092070140059
  0.9875227611516610  0.6949604094216328  0.0159690968013938
  0.9908238687304617  0.3211225267576837  0.6577304156702793
  0.0035917341164084  0.3265990893729861  0.3335897097188924
  0.0086368367596139  0.3398185068808787  0.9852153445072055
  0.9569954639979387  0.0043636388322012  0.6292842330591445
  0.9916409243984610  0.9926317609269019  0.3190301441713632
  0.0082700092141386  0.0076205451995374  0.0061657129319985
  0.8334684760842471  0.8274380633409167  0.8505329093222707
  0.8515822962552955  0.8527033882643539  0.4885088109760093
  0.8374629285699791  0.8276883441451292  0.1736092844534615
  0.8490169787402351  0.5002507290784686  0.8241503490262938
  0.8439085297147577  0.5004327109961221  0.4857387992283223
  0.8319700300917684  0.4820269910194492  0.1777791399777329
  0.8394556204469326  0.1618617195324779  0.8290575045935791
  0.8376862460911753  0.1843393102200293  0.4678601183181707
  0.8200532306485036  0.1672170485877328  0.1626859969699780
  0.4924528237484981  0.8145234604844177  0.8250977076187503
  0.5137508618962688  0.8115959604920873  0.5099440541780466
  0.5156818540084828  0.8274816256420058  0.1910168973763256
  0.5078856595883046  0.5032880255025401  0.8236251722886294
  0.5246738659818828  0.4893305589715500  0.5159227370900559
  0.5198597863720360  0.4978548834893919  0.1814357214748605
  0.4806439988935274  0.1826141459319200  0.8202857737356301
  0.5057364106311362  0.1688746427266622  0.5116382471275563
  0.4956258272666685  0.1702184040891355  0.1633784594214898
  0.1410792120722323  0.8428115070843499  0.8167839477179755
  0.1555786163005995  0.8328493432327005  0.4908669241630275
  0.1728840136847326  0.8347289998451182  0.1596525162957927
  0.1709855718421056  0.4992196871436783  0.8580207668603914
  0.1675714372223679  0.5157395967256236  0.4973122419099367
  0.1865722724823663  0.5115141344908080  0.1748580771655819
  0.1802132493867316  0.1496162595313685  0.8308945705547459
  0.1610228310733646  0.1464895308367526  0.5015458012267392
  0.1595451540961821  0.1658429029251041  0.1722334080395582
  0.6614192084185440  0.8125395134560098  0.8422058702070373
  0.8423239307699394  0.6779142704813647  0.8359388906908876
  0.8481337490371139  0.8539007037777432  0.6739902469788085
  0.6813921590991735  0.8312148662628437  0.4591413423764156
  0.8408152824541575  0.6559582229659360  0.4882303928118930
  0.8763277885151795  0.8191823595179873  0.3368415990583193
  0.6699233307168287  0.8206982952075573  0.1721380851418684
  0.8084609622512700  0.6408012142240102  0.1742661399869364
  0.8389074479964258  0.8402208457026707  0.0168170472652645
  0.6815804972261866  0.5192717058299091  0.8315024994703156
  0.8414499317402834  0.3252236582985921  0.7921636363456075
  0.8394672802449935  0.5080327940905798  0.6582378193129828
  0.6873078871987356  0.5244036363931481  0.5145642896451292
  0.8155831555668663  0.3389283136872490  0.4941296028642019
  0.8027850697201573  0.4604878622555212  0.3353863712409452
  0.6670000816925413  0.4986453206329441  0.1756393443637841
  0.7926854174163719  0.3259552296561001  0.1709608908772163
  0.8569822402322977  0.4806010543961624  0.0034217548107731
  0.6602446861909474  0.1839974311758413  0.8584408434738668
  0.8259618333159171  0.9915806673276728  0.8364370231747160
  0.8229404881433594  0.1936023720129377  0.6690592859904821
  0.6565390971050946  0.1783115589911799  0.4953662701960470
  0.8192145348963098  0.0256019413901988  0.4900317101560882
  0.8140084350620719  0.1915061184573729  0.3226450661816687
  0.6546186716848734  0.1495386287578199  0.1378644022607705
  0.7995497996415081  0.0055663047455471  0.1500867349714550
  0.8438291783112870  0.1974855301067611  0.0022019890305524
  0.3366415657553697  0.8231899292765381  0.8029186664654050
  0.4805962261098051  0.6640821872649403  0.8384760303606340
  0.5152767974820927  0.8267291638129719  0.6605594146602403
  0.3177880973875312  0.7886594373188759  0.5076392602759117
  0.5292528063308326  0.6551946276491701  0.5197562195858904
  0.4874207302061566  0.8262233391012560  0.3481078384493541
  0.3238021645478230  0.8441868774306291  0.1721738337588402
  0.5412266902021045  0.6657955702987588  0.1650519238411134
  0.5052233795164520  0.8193520743564306  0.0002243004771945
  0.3443245629693724  0.4974819318930796  0.8292885953134824
  0.4949566439258689  0.3395435704620167  0.7949924329085187
  0.5058274218326678  0.5130231066898695  0.6554276460386410
  0.3147315096656261  0.5360855394879755  0.5173410219708652
  0.4825138175513309  0.3284991101466005  0.5031076068857646
  0.4809117289094212  0.4947932958193600  0.3311755242391157
  0.3464502494179591  0.5177970247730617  0.1813967137823890
  0.5092524065422678  0.3264314595331543  0.1641117817729776
  0.4993743308870515  0.5024775480810706  0.9944001948139667
  0.3221374044913353  0.1540551608473565  0.7989237281547538
  0.4692780439378251  0.9977182181511860  0.8242994972764908
  0.4817715175601903  0.1894780625748421  0.6754787740458532
  0.3291256315854599  0.1230295819198566  0.4880778842726715
  0.5150275288131289  0.9791519918690760  0.4893754821464674
  0.4763646910634993  0.1579130965307911  0.3410032967724891
  0.3062048774794179  0.1804075898769900  0.1536798252244536
  0.4932352447808833  0.9910298038625743  0.1746713382122612
  0.4919674036833889  0.1663778062825051  0.9955684898794476
  0.9902767786320860  0.8144425706353695  0.8648767281202615
  0.1364416994564603  0.6596857551439730  0.8238826594958101
  0.1466275148339378  0.8551072499645974  0.6684037462328302
  0.0108699366940165  0.8327759836699002  0.5264927084010450
  0.1442595333282483  0.6680288264815404  0.4920979235374819
  0.1939080060926597  0.7934804399338213  0.3311967993220360
  0.9858895202519760  0.8416484422277650  0.1512454577678247
  0.1677948863211464  0.6546139049290762  0.1610710339677091
  0.1533304918510196  0.8588958746262251  0.0020018324849073
  0.0238439556851011  0.4734787801097461  0.8093883969145045
  0.1556717833502102  0.3519338872598700  0.8466380509449762
  0.1491459300015897  0.4183240081964357  0.6039938476669583
  0.0038010538071199  0.5039129987756918  0.4601233159943658
  0.1322372491494003  0.1562095716942915  0.6542558363335101
  0.1889465393479481  0.5022464168757571  0.3264341766682154
  0.9829917074516488  0.4813081320806604  0.1944138459395462
  0.1683942626938674  0.3299521517518383  0.1752244903681900
  0.1736651796694099  0.4908961297736993  0.0282851519709066
  0.1756751790591101  0.1697571740564619  0.9921824518912918
  0.2017211031714854  0.9847234092695157  0.8204318450946720
  0.0235356643491296  0.1385208584489029  0.8355236723266041
  0.9924158752401289  0.2039240867902113  0.5035862254020048
  0.1310603281612653  0.9756769279725567  0.4624213893184516
  0.1663264197747238  0.1551561615705127  0.3456982278208999
  0.9672999977793716  0.1759984048518935  0.2091080052324011
  0.1389775840784988  0.0140192996643461  0.1783185270942841
