Cl O  Li
 1.0000000000000000
    11.7780000000000005    0.0000000000000000    0.0000000000000000
     0.0000000000000000   11.7780000000000005    0.0000000000000000
     0.0000000000000000    0.0000000000000000   11.7780000000000005
 Cl  O   Li 
  27  27  80
Direct
  0.6624889677978656  0.6534498339175095  0.6783006406964870
  0.6711753149262635  0.6600236523555494  0.3394366259570927
  0.6662784831385117  0.6572662315703517  0.0170005164403995
  0.6691331498783708  0.3306928787922582  0.6477773136432763
  0.6796254701731063  0.3336776858823503  0.3167105054593086
  0.6453597527964130  0.3041537411733614  0.0336743882408169
  0.6625658495913302  0.9901944376897692  0.6577849426102818
  0.6728446903194838  0.0154437772021277  0.3276189550400513
  0.6788760042644074  0.0182680191564214  0.9863012650989970
  0.3407949368677275  0.6689369606920375  0.6556726163469730
  0.3254832536171486  0.6833594831269398  0.3225347365324197
  0.3332472216510194  0.6952674567508391  0.0010562208258820
  0.3434986739993525  0.3451664330863825  0.6507352181784674
  0.3293471204131385  0.3273947146292766  0.3548188550344815
  0.3370964124859082  0.3451123040933007  0.0053352098333068
  0.3116282151732916  0.0011160654295916  0.6842795665209559
  0.3456666677013203  0.9859630645851032  0.3240749432252453
  0.3369248555613127  0.9871522096367003  0.9937201013390253
  0.9764476870162644  0.6765402826192900  0.6785644436276173
  0.9976547702625266  0.6671108662769626  0.3217097450914888
  0.0070961443502285  0.6617204363712950  0.9995805360946044
  0.9974289484973213  0.3592318742056667  0.6660594316634207
  0.9908480689926091  0.3284935088975914  0.3295596838933544
  0.0028379812907076  0.3343509177641434  0.9981455224368205
  0.9920678273399616  0.0030900573171011  0.6578911358405386
  0.0176247117385457  0.9902859030869938  0.3349641419935644
  0.9983394408540874  0.9967805991171628  0.0044096804678191
  0.8228979918555632  0.8293609643514106  0.8547315633085313
  0.8346260483177156  0.8238535720964434  0.5111659374280870
  0.8319582217447019  0.8309507454287005  0.1641172403961399
  0.8365918578824727  0.4561544314126781  0.8364780684732105
  0.8294184910087199  0.4909084028331760  0.4971311437641229
  0.8291380890595167  0.4877384762061606  0.1550820203689878
  0.8383173460538617  0.1526465680811407  0.8052226032667527
  0.8325199972929467  0.1709352649803993  0.4963859693088769
  0.8498456475033993  0.1382706747171297  0.1790762653621358
  0.4970390648638707  0.8279611408175312  0.8480290417523112
  0.5165494292505940  0.8486496711187451  0.4885676293694647
  0.5262840246130041  0.8485894288287631  0.1563803874655724
  0.5101904668830740  0.4918167739758661  0.8348118509419650
  0.4906187671003008  0.5112495278317458  0.5094402873150584
  0.4938894214272322  0.5101884052373746  0.1473331837570799
  0.4830649588293976  0.1688704989524107  0.8520941007929683
  0.5128523825862372  0.1561100746582928  0.5081000583046020
  0.4549905942230971  0.1609969875206110  0.1642151239960079
  0.1678798279824701  0.8292890622633677  0.8261300786648895
  0.1791978482128105  0.8551798057994661  0.5023774860958353
  0.1798094613006841  0.8482620638040365  0.1575433409872802
  0.1887686396066275  0.5000755142045409  0.8237511559771653
  0.1566340337234520  0.5044600841003974  0.5122336591442775
  0.1752988198382929  0.5082220288768783  0.1527862142278582
  0.1561831173489591  0.1824585259964003  0.8216731208560709
  0.1500422296420491  0.1740756170154579  0.5202274223649338
  0.1630126011507324  0.1724822934647988  0.1871981041771184
  0.6395607846191008  0.8282471297533053  0.8183122650358067
  0.8105757715172187  0.6433036233923001  0.8505091779648705
  0.8422296941282476  0.8463437841105418  0.6801052778442968
  0.6711234126307281  0.8152386007457593  0.5093411790315400
  0.8265174684744861  0.6621812413071640  0.5235609100480828
  0.8015836380875889  0.8266598587714313  0.3556732996111395
  0.6684687033305333  0.8697492902724291  0.1218833162138109
  0.8128731565893358  0.6617152947242332  0.1889247259399854
  0.8483461488902623  0.8680905220566116  0.0055119172611474
  0.6717373333869678  0.4765065279573399  0.8456896328246828
  0.8492592568259146  0.3075428153243498  0.8001188505488277
  0.8206752618793646  0.4718107467153204  0.6780444085370145
  0.6608544503425985  0.4660921015913174  0.5049302936192264
  0.8428199714050857  0.3408951413675215  0.4730735391044281
  0.8545158824517506  0.4973427895194030  0.3410377834345741
  0.6523046200164982  0.4804981464643768  0.1721917011601473
  0.8439978539217067  0.3262598478607106  0.1753063652026028
  0.8592558332760080  0.4923575780817650  0.9821743304351008
  0.6597360813785806  0.1684769605251469  0.8442715908563331
  0.8182353681642796  0.0027585351049880  0.8560682296029137
  0.8011000803513370  0.1768409729410025  0.6620065992165636
  0.6715123964493743  0.1766032426138699  0.4878027790049908
  0.8614145153336910  0.9888318075959288  0.5194721670426142
  0.8362243313310916  0.1604811123058789  0.3486785543660155
  0.6895320880423261  0.1634925081889452  0.1660470078247033
  0.8356117870787896  0.9846401886334798  0.1848845046983228
  0.8418658922345801  0.1759657391063435  0.9800199967634786
  0.3146240950230006  0.8406871626345577  0.8408079020948360
  0.5174154931399030  0.6697649278105986  0.8460173217326887
  0.4722257190569372  0.8582656037446385  0.6784169147938175
  0.3542899790464511  0.8583577485376483  0.4991732683266058
  0.5062220060305197  0.6886233961265638  0.5174717829377733
  0.5436289863639951  0.8365558694632487  0.3113275046263637
  0.3382942947950366  0.8449833933659383  0.1697560381704005
  0.5024404258302206  0.6649745726509732  0.1552747410416263
  0.5306385543346896  0.8095145305768251  0.9993707010056471
  0.3584695713118115  0.5472512191010011  0.8125109487047182
  0.4793978308829823  0.3233920638480329  0.8344820567926424
  0.5149881499018977  0.5085542116653871  0.6696190708464612
  0.3068732847473585  0.5128508472508668  0.5381299896669466
  0.4922052688593860  0.3502633842554384  0.4900267235434876
  0.4632627351224600  0.5412791353108108  0.3354180441670398
  0.3329037029477291  0.5120599647678054  0.1596391289606307
  0.4893204809745360  0.3279236969954749  0.1761892507797394
  0.4690053071237340  0.5052561892013404  0.9848490572401701
  0.3049209163386994  0.1724396218427283  0.8453882594331338
  0.5002053073185821  0.0087364802652890  0.8736367922729704
  0.5128278889132271  0.1473183338864840  0.6708688554511250
  0.3443806486547655  0.1623896957436944  0.5356881526521847
  0.5600311643738525  0.0091115016781842  0.4903338053778373
  0.4643493230396796  0.1745155517225062  0.3429410430409832
  0.3058241255916228  0.1458527013187569  0.1406800037942169
  0.5180017218757479  0.9945564812505048  0.2023678253377636
  0.4744996630767024  0.1582562163602488  0.0008633197875793
  0.9942782592403082  0.7970279394741484  0.8414877330984486
  0.1852461862726114  0.6625654478474381  0.8131657597249915
  0.1876325582757635  0.8307245939288089  0.6741851773204620
  0.9972515649947642  0.8203792761575438  0.4928477064222815
  0.2047364496533023  0.6856694186761366  0.4941691906879386
  0.1993290766035772  0.8684202352351142  0.3354745820420127
  0.0021314150508022  0.8360700445440400  0.1497471364457495
  0.1859910975726927  0.6792987560251457  0.1573294970520086
  0.1604281036727156  0.8588899697366412  0.9943931130814019
  0.0068341139209520  0.4902115679573913  0.8580924191287959
  0.1731225468699935  0.3371952202390595  0.8746493323754208
  0.1689679847093248  0.4551094624968706  0.6556494586924908
  0.9788986079448800  0.5228268975981236  0.5054188310609004
  0.1686908519569738  0.3533579675345667  0.4882767821844985
  0.1608350022852577  0.5010917789647050  0.3326315953429196
  0.0238053434663205  0.5146572657567138  0.1884933134117283
  0.1615094183652914  0.3359773178947186  0.1799993529513368
  0.1799714231831251  0.5240040918627759  0.9966992448998182
  0.0164841719519127  0.1684034896274691  0.8286603358149471
  0.1481973601181172  0.0210494692975838  0.8141923887500987
  0.1817388137537957  0.2087717550278651  0.6712072729927636
  0.9974742616342439  0.1756036780853034  0.5364641365043905
  0.1599522584070559  0.0107407446436383  0.4941917005758618
  0.1942299999504997  0.1746110365618356  0.3501840853052326
  0.0026919833114710  0.1453502976241804  0.1207285407449098
  0.1563810808821841  0.0157506072678344  0.1651096288857955
