Cl O  Li
 1.0000000000000000
    11.7780000000000005    0.0000000000000000    0.0000000000000000
     0.0000000000000000   11.7780000000000005    0.0000000000000000
     0.0000000000000000    0.0000000000000000   11.7780000000000005
 Cl  O   Li 
  27  27  80
Direct
  0.6704562170638120  0.6686526599193704  0.6564609227715741
  0.6735442012211209  0.6418697798899657  0.3448177592262509
  0.6546918462020558  0.6552361189505090  0.0164296479478639
  0.6846722639080508  0.3612507479187373  0.6533303479630145
  0.6817215252904182  0.3483155379885817  0.3520035146354435
  0.6863258499913969  0.3374552255602505  0.0153135676746763
  0.6709589243989629  0.9835134282306642  0.6446418551078898
  0.6551273477567161  0.9977900899571732  0.3199888872646076
  0.6633365743290415  0.0165126835441390  0.0000491044870863
  0.3179830317750900  0.6664500107064990  0.6659583950880005
  0.3261402953237651  0.6567753337507913  0.3471442128227005
  0.3124118142713618  0.6442496337421184  0.9927797851358900
  0.3428582392884028  0.3476191484523062  0.6579258468446274
  0.3411393502388332  0.3470143773987115  0.3516076887825185
  0.3385838301929768  0.3434579365630558  0.9980196777938786
  0.3587869809144912  0.9981090017548225  0.6728677970889836
  0.3346078997822894  0.0056380190379863  0.3398306449743459
  0.3074656712543102  0.9914238016282090  0.9785123895075797
  0.0106805506760858  0.6703266101639132  0.6616519215479066
  0.0173542782496594  0.6662598102506290  0.3435119428142382
  0.9983706690571498  0.6848477550574151  0.0193299037896468
  0.0113223608190939  0.3470921093857848  0.6742993206988412
  0.9769056062947964  0.3102921875315652  0.3344087781478644
  0.0036422829826982  0.3363019784155744  0.9831792426590322
  0.0084571318153338  0.0156157128398526  0.6666319913384831
  0.9902508600477783  0.9913190089401019  0.3315090106613387
  0.9958207067408297  0.0008569475307802  0.0211394548540874
  0.8318731658872276  0.8490397358193493  0.8338421998964100
  0.8522692295870776  0.8315982163656654  0.4809044445286950
  0.8214031530533654  0.8280788196800993  0.1777241284062289
  0.8314443444252062  0.5151628353318598  0.8417415511411003
  0.8463159310270969  0.5017492497979237  0.5016953624316318
  0.8235140623273263  0.4986007399527633  0.1841352562244487
  0.8462401423397004  0.1572037960262556  0.8158595524535479
  0.8045795219260951  0.1550625024521393  0.4931722524760879
  0.8307599790556812  0.1765179883591435  0.1681107362398088
  0.5014588205697568  0.8194334842719647  0.8371292912997745
  0.4995717956127312  0.8103304208191157  0.4967975994794515
  0.4890550626158052  0.8280306420422778  0.1733243359962372
  0.5063581219675146  0.4879946961415228  0.8360739176336142
  0.4845024782687224  0.4936305081168008  0.4846712070689581
  0.5085727953471365  0.4809686961599298  0.1605689015288936
  0.5237223952590444  0.1833115616023052  0.8441758578696142
  0.4963870108402698  0.1705004596963023  0.4937775093546019
  0.5008788265870416  0.1644443484377941  0.1701492272367501
  0.1481304417242931  0.8414014344979138  0.8355061502446990
  0.1717406218761018  0.8386723130142602  0.4843124658515326
  0.1651970662819877  0.8281683734068734  0.1719693702965647
  0.1762422958201926  0.5079972416568141  0.8248963817757449
  0.1663707686800330  0.4859820044720620  0.5039897920688238
  0.1537948667630420  0.4946649913114355  0.1817557869836904
  0.1604509313113628  0.1784313895607411  0.8124014506786219
  0.1600367352036801  0.1567574140176754  0.4875929176476680
  0.1655131257559903  0.1820204818795086  0.1603787415584334
  0.6608863568344234  0.8211775147611031  0.8469065177988454
  0.8039322411920696  0.6751680983962852  0.8178117589205671
  0.8084406964423242  0.8696981449755723  0.6715792679470128
  0.6608629157820716  0.8085175651330890  0.5201471952902198
  0.8771735865955430  0.6785925567955561  0.4874491539569922
  0.8013565594120658  0.8486603065574475  0.3214684872987620
  0.6630947954609153  0.8482504322672753  0.1871656701288315
  0.8219461433714009  0.6726575171554555  0.1545520611180214
  0.8439264821327899  0.8397961879940291  0.9908689294544420
  0.6545157346688426  0.5012456112983442  0.8012305544279816
  0.8489261063763643  0.3519114520989231  0.7960080984881304
  0.8205924732048462  0.5182635723932980  0.6693745539782349
  0.6401972597374705  0.5016335020109223  0.5000050560814757
  0.8558997992083226  0.3399154227084173  0.5021608231896435
  0.8332846492191678  0.5200844441904914  0.3477512105738415
  0.6540936742702803  0.4749628070524447  0.1623233974965001
  0.8244013405714409  0.3448818084304360  0.1540263580700279
  0.8368311711293899  0.5114291898569228  0.0114712859280265
  0.6703509549979835  0.1724185774481573  0.8109175794337193
  0.8264766226846596  0.9923268236361115  0.8246473155338306
  0.8425321646146615  0.1423437680089009  0.6513826758619077
  0.6540512455606693  0.1825513063318588  0.5046028626314549
  0.8161934905030531  0.0050399467382743  0.4521830016154186
  0.8225464610299027  0.2015433967433115  0.3282873639231326
  0.6785361737222179  0.1669676218546381  0.1572638244821658
  0.8438540942198279  0.9940654303454880  0.1680125085139563
  0.8144046831505275  0.1807981058973702  0.9914334289116739
  0.3341786532234638  0.8396868773872074  0.8258283559124263
  0.4976501151448020  0.6468889181011284  0.8205945640577933
  0.4985520895927225  0.8388910961695437  0.6692475512472716
  0.3341115081710881  0.8665790680234338  0.4811772757062405
  0.4819069586378512  0.6505260463587828  0.4733608790665052
  0.4792739900027909  0.8382353944702522  0.3450419674264655
  0.3190998218081205  0.8048249718638251  0.1650606869116080
  0.4870135858198812  0.6605543228848545  0.1691036307970886
  0.4918000543801530  0.8188619922253356  0.0019112891147793
  0.3477234519709962  0.4848132716580861  0.8341377433889284
  0.5377620471722006  0.3395912560310754  0.8715258575213748
  0.4823651320220747  0.4894811989380710  0.6306773846009811
  0.3267231637705855  0.4824615146804277  0.4587848359571328
  0.5137592597575567  0.3368435719869670  0.5209755672628801
  0.4987922490444512  0.4920244114193076  0.3153378019151553
  0.3491340851093280  0.4704138259068460  0.1403761353150272
  0.4943201092069073  0.3188853170035900  0.1605338310425382
  0.5077303344518191  0.4814419301166488  0.0041646989662552
  0.1668664517965605  0.1722404618871525  0.9752410568071196
  0.5002008579122862  0.0162971240396215  0.8060737430475712
  0.3601214205113271  0.1593314561385767  0.7885626696596205
  0.3364539939898717  0.1849710787982065  0.4821138651796546
  0.5197062425935876  0.0156617839711884  0.5386500802507344
  0.4910414792542190  0.1379888030690586  0.3446652911724392
  0.3356459861784082  0.1742032755315747  0.1725492630657549
  0.5008512560228766  0.0065662305618821  0.1668303952719973
  0.5228758453373236  0.1546075982647679  0.0091821073750200
  0.9883083700791432  0.8362799491704380  0.8124451749213505
  0.1629198530653704  0.6943701663863608  0.8256898958104520
  0.1799217515739329  0.8319632328216308  0.6585624799158402
  0.0080706587246879  0.8536884325296157  0.4902900151720638
  0.1728621284593896  0.6641751355223052  0.4873313818994941
  0.1456048201536729  0.8256306669413881  0.3277206896402857
  0.9719361538029752  0.8345876590351952  0.1729464654226178
  0.1612731292590082  0.6724389769126317  0.1933447963054243
  0.1448831474788937  0.8741198804777482  0.9824819510572168
  0.9927016032201410  0.5277456197685396  0.8087563063098007
  0.1895337773577678  0.3377026926284724  0.8167620532117975
  0.1799934512349261  0.5021957633840861  0.6463578292079442
  0.0067104318194777  0.4949043005695556  0.5247944345257283
  0.1634400096122029  0.3294754702914313  0.4815035881103088
  0.1455705998609262  0.5092562569349429  0.3340565550814382
  0.0018644145981614  0.4891242390786825  0.1852659732384966
  0.1688191137244416  0.3467651897005675  0.1516631740854155
  0.1572750330863820  0.4957989066728681  0.9729544967643960
  0.9964536828408731  0.1597206727483301  0.7845220638065635
  0.1743401495625566  0.0055659682925788  0.8049004758676825
  0.1655679227583361  0.1750969504704586  0.6565353349550327
  0.9885527982112818  0.1614249769289708  0.5055576705393394
  0.1506845650235069  0.9988877607553625  0.4466635447082911
  0.1206670930460696  0.1703172834590558  0.3247826634413725
  0.0030458193454466  0.1733257542712543  0.1244124750228706
  0.1618236701059963  0.9753769526748214  0.1840898518372077
