Cl O  Li
 1.0000000000000000
    11.7780000000000005    0.0000000000000000    0.0000000000000000
     0.0000000000000000   11.7780000000000005    0.0000000000000000
     0.0000000000000000    0.0000000000000000   11.7780000000000005
 Cl  O   Li 
  27  27  80
Direct
  0.6738933650765441  0.6769721421241617  0.6837297511473863
  0.6671440828718502  0.6431565415351149  0.3266370388862556
  0.6447273518767820  0.6543992184175682  0.0008226161140176
  0.6853010604898883  0.3389060948145674  0.6642891836073894
  0.6699842963203628  0.3388128164300794  0.3477023871404304
  0.6939914156738697  0.3392116786887495  0.9748415414047579
  0.6410907499294569  0.9900616402238611  0.6704048691466155
  0.6662580191900337  0.0131920651050288  0.3141649618030404
  0.6834505533726233  0.9978804523876251  0.0040079275131003
  0.3055797165980948  0.6654901559835885  0.6407333956038270
  0.3296565518275082  0.6817061415931591  0.3442805198073954
  0.3281057177145749  0.6644695592845612  0.0075876129836112
  0.3309204455975341  0.3306532249703331  0.6507625628089172
  0.3433493045056447  0.3275904227380032  0.3519792253604525
  0.3510665523764515  0.3199762304781834  0.9998666787264546
  0.3380048660256619  0.0103310661940222  0.6731673101226450
  0.3430131541469623  0.0278770418008430  0.3602132290036574
  0.3417656367252548  0.0027950284877419  0.9915133636312973
  0.0061601977437719  0.6404029668638611  0.6366133978618894
  0.9855290276774205  0.6627492127602341  0.3437285417283547
  0.9983952292774667  0.6913985106730081  0.0069699100044653
  0.0269926625334845  0.3371243116806653  0.6709441348069369
  0.9970275783602098  0.3236650990897333  0.3370994809484600
  0.9950639129407177  0.3363039153337619  0.9996080138050251
  0.9775816366983362  0.9931716667891256  0.6633379789009890
  0.9850460139638643  0.9877979826611418  0.3210478458605167
  0.0160210215536801  0.9950777875753650  0.9999945809926197
  0.8466454594587021  0.8301447635248392  0.8414340259382106
  0.8215780272190224  0.8183929826124655  0.5130054899780044
  0.8117470360955593  0.8161397266371764  0.1646295091454273
  0.8294284720885124  0.5020622563633392  0.8255673889309607
  0.8281475946890191  0.4819996304997058  0.4913292776160399
  0.8314394633707559  0.4767444623486277  0.1573325909219082
  0.8343650200634095  0.1641618955939000  0.8504659160403955
  0.8521937419777027  0.1785666246911364  0.5165752909989385
  0.8372023995332269  0.1601114214221716  0.1712716062273208
  0.4821843418614611  0.8141128650742386  0.8251674740516323
  0.4985126744835987  0.8281376588419492  0.5065739372704730
  0.4903623136973175  0.8366336030874273  0.1634978812096560
  0.4973302980864751  0.5236473765529522  0.8364529440123859
  0.5035248087188428  0.5009668021413440  0.5059554416629106
  0.4942232453010871  0.4983178417693598  0.1560736464932468
  0.4952404817110898  0.1640731718180295  0.8291953674859701
  0.5148225862442161  0.1847809731743718  0.5177768574803708
  0.5115581666704145  0.1884974325927919  0.1742937611080771
  0.1576143589871911  0.8404027947522864  0.8241078089320187
  0.1548185175479662  0.8599825106462267  0.4906644666995130
  0.1583012344521321  0.8352532125503163  0.1674541255897629
  0.1604644913611376  0.5149841870790366  0.8380468546014889
  0.1760696634696808  0.4943111626898276  0.4825936192583423
  0.1747827739868124  0.4975671208129528  0.1578561583645276
  0.1823029186393554  0.1654185829609575  0.8436540838773536
  0.1672930946052448  0.1687905520262488  0.4934764618173016
  0.1627266946120220  0.1646254130522348  0.1694999545672548
  0.6525134654298868  0.8433509423036832  0.8188469728235498
  0.7986008566942375  0.6471036665766343  0.8340545883278934
  0.8563603384264742  0.8315585140397359  0.6680682941976823
  0.6676711624237814  0.8165337306466545  0.5139219177172714
  0.6537793227422944  0.4868357746579666  0.5141298507826927
  0.8439337467013199  0.8283821907179508  0.3555268808621526
  0.6602944778213397  0.8144965048187736  0.1341924463794336
  0.8233194666419252  0.6525860793336721  0.1869397230269589
  0.8381618227778437  0.8129259947966123  0.0050447759412934
  0.6873990144326704  0.5005636484292210  0.7998674936172918
  0.9910665522209876  0.1765705117970435  0.8523489734272477
  0.8087723301152457  0.3350392320982423  0.8113267269574820
  0.8633785652093601  0.4796588045827295  0.6475774136677667
  0.7923574396866695  0.3298138004807608  0.4680011795579467
  0.8069615796705361  0.4916553602835644  0.3293003310933565
  0.6758006327385366  0.4501626733503654  0.1310607885861583
  0.8316046438432868  0.3108629849447359  0.1488326993489614
  0.8579194315630341  0.4621201201452040  0.9896323178632513
  0.6666261530225640  0.1654539368451824  0.8799396993264762
  0.8197615278461019  0.9909661924537423  0.8352376529769857
  0.8366053207075196  0.1881297643424759  0.6781809423180565
  0.6754910003233612  0.1339099321221247  0.5433476043363503
  0.8538919429827959  0.9936203691177629  0.5100352778781936
  0.8432750490816933  0.1814204007519770  0.3246470595317677
  0.6748636384110233  0.1705284489757824  0.1704786589883528
  0.8032139262437616  0.9957482882734490  0.1787669130808693
  0.8405412312904871  0.1496587970718763  0.0020329100479212
  0.3044786146614137  0.8184980827366541  0.8308679007411650
  0.4998043614875443  0.6740637917307301  0.8673603966350507
  0.4624462470438590  0.8261873956746066  0.6664852336984415
  0.3286451453165360  0.8444702829175396  0.4625996971353669
  0.4950065165270810  0.6492884617237248  0.4774012844634817
  0.5188414919175484  0.8388141472664749  0.3420024462758169
  0.3094937245742880  0.8526007248821332  0.1806536141546154
  0.4684378448016374  0.6900270269260825  0.1572998584679764
  0.4736209489230329  0.8587844663954587  0.0095608313783864
  0.3472750937361286  0.5581483546467724  0.8330688495668191
  0.5122901023966122  0.3245848668753198  0.8101504638572585
  0.4832146550588725  0.4973015770091955  0.6713075318465048
  0.3236794276037813  0.5073243880049262  0.4792843418503338
  0.5094154358642455  0.3372585005718917  0.4879497580217960
  0.4935284751812091  0.4889095588110181  0.3348192414474500
  0.3217000149412862  0.4943902306954287  0.1235454212119875
  0.4566833108813881  0.3385494183530485  0.1726307014388066
  0.5162897775002258  0.4843741402777472  0.9907921166859069
  0.1843643344996720  0.1691680177457689  0.0005078411762834
  0.5006634618863445  0.9931321277256489  0.8479090194906014
  0.4947063172124200  0.1970671210124650  0.6696330957770430
  0.1569007631516938  0.0175990550618054  0.4705221655491293
  0.5075950498919714  0.0054787455841546  0.4667042699361196
  0.5137440954089832  0.1857651734898683  0.3350966069909080
  0.3319981469672733  0.1606071450241090  0.1898704011239692
  0.5198549631844274  0.0221934949969147  0.1711214863272854
  0.4945475739200687  0.1969839234950505  0.9993567210237105
  0.0048214401249327  0.8346274700543759  0.8409374318999595
  0.1770706449875950  0.6814847673716397  0.8159232784597533
  0.1560402255208408  0.8597034852009614  0.6758319788336836
  0.8297956243927641  0.6457348953521742  0.5111307321001890
  0.1316938890388490  0.7016626956827654  0.5106977001555345
  0.1262096038316016  0.8489635156536592  0.3323589026003484
  0.9631690559619108  0.8233859672488106  0.1775752250394608
  0.1376153761879740  0.6726825914854204  0.1828309599862780
  0.1532542625216398  0.8596476153352522  0.9836361958609129
  0.9946648033414962  0.4898749738963051  0.8349336885192009
  0.1423981403332368  0.1747997811800535  0.6653605490104739
  0.1723647019076820  0.4870555294630887  0.6587174195506270
  0.9905786336898966  0.4812138896637059  0.4934093370076310
  0.1805250423475120  0.3170328197197489  0.4712182312021253
  0.1782433656144494  0.5289859041630846  0.3180721479876598
  0.9937426247762651  0.4797358078324241  0.2119814267886254
  0.1809731955927769  0.3273315995122948  0.1701339054800594
  0.1665106634515071  0.5052469196795707  0.0113648327787434
  0.1987333757080515  0.3454069180584960  0.8325294219648580
  0.3275401162950914  0.1249901056346371  0.8177920040114888
  0.1446194431987353  0.0052310014439085  0.8402414067323735
  0.0269100166297804  0.1507930768019983  0.5193285013015030
  0.3463930785953057  0.1560979610364754  0.5115513350239937
  0.1642575390538004  0.1775679305988835  0.3382948329194675
  0.9776800516692098  0.1301683211427831  0.1780790659660899
  0.1637177065977400  0.0073709488781446  0.1518197938647147
