Cl O  Li
 1.0000000000000000
    11.7780000000000005    0.0000000000000000    0.0000000000000000
     0.0000000000000000   11.7780000000000005    0.0000000000000000
     0.0000000000000000    0.0000000000000000   11.7780000000000005
 Cl  O   Li 
  27  27  80
Direct
  0.6455441813416322  0.6605508212190446  0.6637288878925438
  0.6619620676905437  0.6561047135000883  0.3505470763426775
  0.6629845672038378  0.6489081484864432  0.0134622473451041
  0.6928724352627237  0.3575494303657820  0.6373198906238801
  0.6938343686027565  0.3194925579893402  0.3018372780502916
  0.6773770089791592  0.3432206316548769  0.9745292593111683
  0.6645711499337429  0.9907856690212246  0.6671677186123413
  0.6517846024288650  0.0022346363052199  0.3442881129376948
  0.6729227636928062  0.0016524573755375  0.9887776894226781
  0.3301075753708993  0.6791250819572731  0.6627590598975739
  0.3196298500664448  0.6604861660193800  0.3362812526869247
  0.3245160746767941  0.6673785236627808  0.0184483153021960
  0.3444495318400330  0.3135639960148291  0.6436103516777916
  0.3269438025261938  0.3289835323974723  0.3134380888690214
  0.3514738719198187  0.3197668263989384  0.9936534099669031
  0.3180892790049297  0.0079534141138282  0.6747195835835677
  0.3078717331874165  0.9980646014432344  0.3457357902261161
  0.3297319922229411  0.9769702461835725  0.0008857220951317
  0.0141089597956455  0.6709797008764136  0.6842995246800296
  0.0042149240327317  0.6903169496502589  0.3464120585136543
  0.0005353156679734  0.6660387399918335  0.0153136615885856
  0.9929790335171189  0.3183091694569682  0.6685262065426779
  0.9880284067409170  0.3265468370297722  0.3441823245615371
  0.0125348237989570  0.3613752206337290  0.9948267739322246
  0.0005830834700924  0.0064911095733145  0.6675259740048476
  0.9857832971892083  0.0122620068120982  0.3562217947969021
  0.0051567342262737  0.0113985137463200  0.9796792185335185
  0.8358711136323866  0.8332741709601494  0.8337658282574756
  0.8218447814190989  0.8465197825282695  0.5029633088295571
  0.8288861658564667  0.8387701463295153  0.1662611036457632
  0.8386552952735508  0.5176993073144919  0.8299727502007553
  0.8351622950752616  0.5106849671309599  0.4898360361146745
  0.8492428777378612  0.5195770611126427  0.1604316600761232
  0.8394677564801071  0.1783904388907423  0.8518642639727489
  0.8257259557278356  0.1786604360895924  0.4748830333534062
  0.8463224222068593  0.1674997522836082  0.1605518308941600
  0.5055630425159929  0.8137124305882200  0.8340783756221664
  0.4857812639410719  0.8183174030557574  0.5112694169878547
  0.5051126018450667  0.8370233628325013  0.1652688973404523
  0.4933153558173370  0.4885982327122641  0.8410765216417246
  0.4950011278015806  0.4877190110647265  0.5034749229548937
  0.5001325320544904  0.4934222312475446  0.1593119449722250
  0.5317381555714676  0.1634166367501205  0.8378380127302809
  0.5025305638557034  0.1712471526765703  0.4804122067589179
  0.5229170729988092  0.1475599490323621  0.1560649240033427
  0.1620047040093366  0.8275896145513109  0.8539639183027483
  0.1517801744586097  0.8372874896469110  0.5034425751123563
  0.1521590774101824  0.8408970878258102  0.1795726355826083
  0.1854628614468430  0.5014180187386978  0.8205564916166566
  0.1575565922625886  0.4893968479086230  0.5138982965965115
  0.1550720127762891  0.4865837191993561  0.1821029332180759
  0.1772866507263189  0.1742455628644002  0.8302983338674449
  0.1667993809864725  0.1699412046869755  0.4871092222993871
  0.1480167317219612  0.1640382800983052  0.1815532830501063
  0.6565067801581616  0.8228119313249950  0.8303080503658289
  0.8433385665239005  0.6707992574043375  0.8317016391465786
  0.8204643908819879  0.8306126601110858  0.6758489240936777
  0.6489024460956607  0.8418914094937900  0.5285746625517006
  0.8359087650636253  0.6834668182894194  0.4990148477695101
  0.8322892884447024  0.8234416413911089  0.3299084240665024
  0.6721479944028985  0.8231288511139586  0.2008818072181108
  0.8430920913482221  0.6807491946621870  0.1799673683294652
  0.8206485994971877  0.8282966517503991  0.0033155783542563
  0.6629484137327667  0.5049643787072799  0.8399005824247805
  0.8680809009218097  0.3388618509651483  0.8375959099788753
  0.8841936892214585  0.4921090869763340  0.6552605951820507
  0.6417011038036434  0.5180424616490927  0.4809379502923214
  0.8339837647920816  0.3715992846022416  0.4794398686685322
  0.7956243247044977  0.5309995741860228  0.3206456659141686
  0.7034650379178660  0.4951746827019496  0.1262213874683344
  0.8769128740697404  0.3511913181918709  0.1919180945462547
  0.8612301217944113  0.5103836342248207  0.0017215501044305
  0.6786095467991912  0.1780632560503604  0.8605092754976045
  0.8615896322346256  0.0028683237465677  0.8632790443328318
  0.8404809443491164  0.1446456978904326  0.6582421027112332
  0.6724178701455189  0.1663572438939171  0.5155084418349983
  0.8222201621400071  0.0088135753568857  0.4705976122264781
  0.8365724828740841  0.1565449064230811  0.3375850448284405
  0.6752469096208897  0.1861467754248405  0.1714790758264645
  0.8111746087185230  0.9953940897070362  0.2058688000137859
  0.8496948568543649  0.1560586867711257  0.0160801098615828
  0.3201737715489087  0.8293790696703954  0.8479570980308346
  0.5150233492260998  0.6419518643807566  0.8087095699909377
  0.4958975557483400  0.8187701918804599  0.6774524297249351
  0.3262451053215521  0.8488578959227800  0.5249507325376847
  0.4715050962630810  0.6528908197178844  0.5110434679150128
  0.4784195184548957  0.8268894598719118  0.3581440420605703
  0.3334383100461727  0.8426810369291435  0.1753393394209703
  0.5071736330939888  0.6580850168416019  0.1391496440293339
  0.5236339886379212  0.8417284962042156  0.0092683131232745
  0.3404623667280889  0.5085707380533844  0.8601249070156906
  0.4810979117199020  0.3103377136971855  0.8571063958218283
  0.5014139357643127  0.4703121471219462  0.6510705171955172
  0.3402741500573056  0.5161764891052328  0.4948347291938205
  0.5099695150186236  0.3075405362394327  0.5182720973733257
  0.4993327832666533  0.4763976710307716  0.3255461818742245
  0.3301213404102768  0.4857172504559479  0.1554883105523571
  0.4829889447325111  0.3162302436568553  0.1328400131338187
  0.5176118648810527  0.4878379167137027  0.9929485241878022
  0.3391814488431859  0.1622713247457915  0.8704072294890983
  0.5314395351877942  0.9939527635672982  0.8489542536775102
  0.5411096777775893  0.1927066668818629  0.6675987667719090
  0.3186283219954965  0.1811275562428579  0.5014632434206810
  0.4904594745151799  0.9905022338291990  0.4862319844369362
  0.4822998020846139  0.1753415433967246  0.3031928915165231
  0.2934958094593481  0.1716923707296150  0.1304268499106428
  0.4824702861458462  0.0018934507318232  0.1736869881426273
  0.5600931650394310  0.1538414122039157  0.0124015371958467
  0.9966976861061051  0.8484197628164739  0.8224367150248131
  0.1810407818186826  0.6738258656801865  0.8241560494138919
  0.1877648011275776  0.8453324264257240  0.6683048728065686
  0.9981955651446986  0.8563287495887285  0.4956736678584737
  0.1461952627649713  0.6832262539835913  0.5076359324170944
  0.1525318873075600  0.8296997950878929  0.3470028621008218
  0.9947231187248192  0.8623283634576738  0.1651653559045460
  0.1821707296099416  0.6374895220124166  0.1821638637600266
  0.1743070864968133  0.8455581730715160  0.0094553974677488
  0.9986406543877183  0.5023877657628478  0.8352985249067583
  0.1980393908876880  0.3460878488718155  0.8240417995870580
  0.1744522469341318  0.5164281868987928  0.6624045291627815
  0.9962600423039332  0.5105573976042577  0.4775129655827214
  0.1699459171678986  0.3247941426629078  0.5326001268614422
  0.1562600166453935  0.4807111080613740  0.3351957983611831
  0.0088213596682875  0.5087341776532881  0.1665022549900354
  0.1719973331319614  0.3057662631490735  0.1391015473623323
  0.1750756210335912  0.5044152750923446  0.9816827567048271
  0.0039526763106690  0.1856058701054167  0.8644431618100753
  0.1827472013619924  0.0002664377454478  0.8835636921845434
  0.1492974066944047  0.1673482761223400  0.6819346099441428
  0.9849650744027506  0.2092953004471714  0.5064622198976966
  0.1501091796489921  0.0121861118505006  0.4933750277386487
  0.1600763940555308  0.1459922831102487  0.3368597284667672
  0.9954230760378451  0.1222931666341674  0.1759048193842240
  0.1317510806357541  0.9974712047339315  0.1808901522780917
