Cl O  Li
 1.0000000000000000
    11.7780000000000005    0.0000000000000000    0.0000000000000000
     0.0000000000000000   11.7780000000000005    0.0000000000000000
     0.0000000000000000    0.0000000000000000   11.7780000000000005
 Cl  O   Li 
  27  27  80
Direct
  0.6854470004060651  0.6436393455410421  0.6496465927225833
  0.6744174387215048  0.6801755251922464  0.2815901480534449
  0.6645270959870785  0.6813755937135113  0.9894048355226535
  0.6367786794161568  0.3363351248345798  0.6757011402272746
  0.6555423713874666  0.3766736941867892  0.3137100577328144
  0.6573545388215241  0.3506796723699494  0.0097435010325696
  0.6701634747580956  0.9884348222653466  0.6750491631856966
  0.6720664914520451  0.0021112248474225  0.3453600735017844
  0.6878139394124488  0.0034982382282727  0.9968278556767647
  0.3540837175651504  0.6696193998914548  0.6354258090853822
  0.3441112704193778  0.7056159899990584  0.3416937552635676
  0.3307612672217430  0.6769383118139207  0.9997276404012188
  0.3085696755913181  0.3493026826072728  0.6732705176710646
  0.3489000466480158  0.3216261276389841  0.3393470994475609
  0.3240141712291856  0.3314932317481084  0.0056799083228535
  0.3371951478403458  0.9796362065648633  0.6628482371355148
  0.3229836151193145  0.0012981454476340  0.3424099421653009
  0.3357948992096620  0.9730010426094210  0.9923364302346480
  0.0014734385570394  0.6858740085821023  0.6769212085410466
  0.0114784524195968  0.6657105335623232  0.3529556222303295
  0.9970603305589790  0.6705309693815297  0.0038291159099653
  0.9923621850322778  0.3242724969447325  0.6426257748734616
  0.0028107064393099  0.3273245705434301  0.3438091179326212
  0.0085571897107343  0.3289706668259382  0.9980649348211391
  0.9964192311246906  0.0000205397753312  0.6539752522673208
  0.9934057192463708  0.0141617074305818  0.3260750104213441
  0.0215503127546316  0.9736695705926474  0.0093883997065309
  0.8293867216442351  0.8342184614502760  0.8181178408291359
  0.8409621481109359  0.8227682158710911  0.4856857431659624
  0.8262259447198645  0.8534340515672695  0.1753131534833040
  0.8385156957594420  0.4932730108153527  0.8400803660101538
  0.8442000092558209  0.5028063936903907  0.4850863161864790
  0.8424332259662994  0.5022287478614518  0.1506552412864599
  0.8377341654060753  0.1725788885397656  0.8375546432260089
  0.8290858340776052  0.1541289686167971  0.5064515601147401
  0.8250440946330700  0.1752047114999725  0.1786360542317553
  0.5053557513964743  0.8245055257821804  0.8296592595514921
  0.5063365914229464  0.8258243784961917  0.4986750011183799
  0.5147962202557137  0.8413908566741906  0.1526341073959208
  0.4988928629816539  0.4825276971939392  0.8550149479099020
  0.4976742926280492  0.5072724202310345  0.5037288353258560
  0.4861521449608214  0.5196978378793007  0.1930463298301527
  0.4814184288896937  0.1365531590583621  0.8297857359721260
  0.5108129822285332  0.1834289176739735  0.4944999837043419
  0.5050898837094374  0.1451270680820208  0.1708861751205416
  0.1377118834186214  0.8443976270991719  0.8263167841073378
  0.1643366071941187  0.8216822352350204  0.5202910521611824
  0.1682828010712095  0.8365688824094066  0.1767673691654298
  0.1514932890231608  0.4893419584815772  0.8491608386042596
  0.1668493847684373  0.4991739212548789  0.5036643825532410
  0.1640103049114028  0.4889318817643554  0.1782515440509067
  0.1673051796348272  0.1584484987015946  0.8321610959437761
  0.1532336657040529  0.1555644901608858  0.4997199700341874
  0.1710174791773766  0.1669317507710585  0.1707385248305121
  0.6883319907179648  0.8286197341104976  0.8629992375446339
  0.8099985827101026  0.6663638871078388  0.8432508594329083
  0.8115426962449869  0.8347927874756002  0.6502150483634670
  0.6873925672658554  0.8028357910858053  0.4955892436586172
  0.8691751347608508  0.6586170039169601  0.4983021709782973
  0.8430589684622399  0.7949644557447895  0.3372116965005899
  0.6786041159336037  0.8609384271526430  0.1713083164899238
  0.8623771486080063  0.6724610708147252  0.1719255975351881
  0.8298550568663521  0.8415375757997914  0.0044833149047054
  0.6772702836179170  0.4878599495655319  0.8463485600886015
  0.8480330059267361  0.3308129351622817  0.8386934978074533
  0.8583859349550689  0.5022659539531813  0.6471926910556612
  0.6570380643720698  0.5093676211659409  0.4759703783732708
  0.8243318753015104  0.3403354072193425  0.5122433623744940
  0.8423433483562457  0.5163593704907298  0.2972905114820955
  0.6864254517933510  0.5117490944344911  0.1676242960062134
  0.8167617514104039  0.3219272581180735  0.2141346333117601
  0.8448289905845562  0.4888339070723151  0.9906552894017503
  0.6788780402172174  0.1794537767287799  0.8256532282385188
  0.8070400708937628  0.0087488751763609  0.8278070520470098
  0.8399111468690484  0.1703593164255418  0.6888276842047786
  0.6685828838688606  0.1572002930279182  0.5045651019534536
  0.8357555624517788  0.9951501713706704  0.4897348104696954
  0.8369560358271428  0.1345127348830964  0.3431004613171358
  0.6570783878403640  0.1923819421976069  0.1557758156922122
  0.8101444921275051  0.0096547330607124  0.1653045832305178
  0.8249001285153448  0.1576576567039431  0.0090282301132361
  0.3461357028577196  0.8306643282829863  0.8168996348442206
  0.5175994300395466  0.6672148904246522  0.8217735923753596
  0.4950413239929889  0.6799293738998476  0.4726312227327310
  0.3271367501692831  0.8386171202687894  0.4835186806284229
  0.5310983993030337  0.8463363114392731  0.6605941714520271
  0.5155916775900977  0.9535393287908355  0.4434541975014670
  0.3364649327440704  0.8195049298887677  0.1649828861631819
  0.4811854758409332  0.6724318403487527  0.1629581905696756
  0.4752300720396358  0.8223766409862090  0.0022933319318826
  0.3442353177154157  0.5239705465875096  0.8433940158424351
  0.4505521499289318  0.3378281862675373  0.8022864261285286
  0.5233890460871640  0.5133186328068140  0.6524234869899591
  0.3462736771347749  0.4742943413172932  0.5008716584905811
  0.3330433488089050  0.1673265543673828  0.4960406154939719
  0.4900699180801384  0.5130068951503217  0.3434425225456685
  0.3201328754642191  0.5032677249365891  0.2102517383731012
  0.4892331656276217  0.3566309466594333  0.1801012617026781
  0.5076297763870595  0.5039891344562037  0.9970234780146433
  0.1811841753200127  0.1427610501187130  0.0043958272723870
  0.5075924893245102  0.9665305328161805  0.8262685254986966
  0.4940059906047456  0.1482492421680190  0.6662569062249113
  0.1734219886441791  0.2042810292740256  0.6919871655960309
  0.5098712915934674  0.1817767890653851  0.3448499978220254
  0.5194239455236340  0.3417803314998883  0.4830702642279935
  0.3211402334341978  0.1809041665396668  0.1914196058162980
  0.4983607632388908  0.9885323490875395  0.1618581716177102
  0.4798673518643006  0.1322893065335763  0.0106721148802266
  0.9863765430578515  0.8533115427168091  0.8312781091531146
  0.1380292991538567  0.6641263394716042  0.8708332453376906
  0.1568496909417791  0.8068518627804422  0.6778976761432459
  0.9953702778752194  0.8224628749093685  0.5369856158015832
  0.1610378762353981  0.6557810009510806  0.5204077311126124
  0.1650115090990716  0.8190875253123477  0.3641762750497785
  0.9996315999432748  0.8718902973355401  0.1674978094642270
  0.1870173131833092  0.6790636338938180  0.1850698943649481
  0.1737696571019876  0.8462687008046833  0.0036239250984825
  0.9980434371358227  0.4815188007783829  0.8433225186084916
  0.1540179591866476  0.3127769481918314  0.8739121607631744
  0.1448979121043312  0.4688637498849709  0.6631248739415941
  0.9927394945034187  0.5030079300610423  0.4728491152089960
  0.1493477343596489  0.3324110359913131  0.5073835747368316
  0.1491430907337849  0.5059995589427083  0.3453605593267036
  0.0206852103938085  0.5115433880666163  0.1483500627729305
  0.1973888047720967  0.3216871796371646  0.1650330779501476
  0.1621218326009720  0.4797989400789751  0.0110324919612473
  0.0068437959229788  0.1584099464699850  0.8534003897617325
  0.1441931319668469  0.9893233783302120  0.8076490425575719
  0.3181325520874930  0.1259358906672175  0.8329229503879150
  0.0050052294713061  0.1855219121540385  0.5234230439590897
  0.1644334786587384  0.9999973658317973  0.5228056414575956
  0.1698166211906181  0.1298435221913461  0.3344942955431122
  0.9966164760418892  0.1816508794404902  0.2112224570470897
  0.1862438596692244  0.0012788434749365  0.1690327732964662
