Cl O  Li
 1.0000000000000000
    11.7780000000000005    0.0000000000000000    0.0000000000000000
     0.0000000000000000   11.7780000000000005    0.0000000000000000
     0.0000000000000000    0.0000000000000000   11.7780000000000005
 Cl  O   Li 
  27  27  80
Direct
  0.6735717292059042  0.6587289922072403  0.6992766649062517
  0.6530024689223561  0.6607902663686221  0.3609776645478971
  0.6874474961796474  0.6421676660509326  0.0041850478575643
  0.6560533684441655  0.3686400179983405  0.6525100245917653
  0.6657960204031526  0.3298809261865928  0.3301303327589842
  0.6635572177192101  0.3187819725094055  0.9872663924125025
  0.6466469883000907  0.9903766663183183  0.6391913773441243
  0.6819938685490727  0.0017054540862397  0.3550920171079160
  0.6758015036434315  0.9899494402344822  0.9921663535959254
  0.3442424738454856  0.6894440176764886  0.6685322470293914
  0.3326696586877254  0.6973362434890303  0.3362960177794790
  0.3283827598433347  0.6931277041555670  0.9964685717398845
  0.3177231538347516  0.3595651728762155  0.6701271292683330
  0.3569304798625840  0.3028944045452199  0.3331532366198243
  0.3192518019430410  0.3281224019206979  0.0079431724560673
  0.3183476817683941  0.9894250592881568  0.6553065542829590
  0.3371934983937551  0.9827919562931138  0.3389426299976871
  0.3487302815366741  0.0039966414114219  0.9824015023480195
  0.0110392189500721  0.6419488828956490  0.6723238676113540
  0.9983523092019646  0.6804047592296957  0.3260331890309544
  0.0030935514475406  0.6654662097597740  0.9850388218994786
  0.9848451928823129  0.3485620886497520  0.6715926201371255
  0.0011157483963827  0.3373238449196866  0.3192561338350458
  0.0103604228547512  0.3404758567528062  0.9907393150103870
  0.9703768536150558  0.9927022703537439  0.6741666420153218
  0.9834949209598547  0.0027109781936654  0.3334841846033301
  0.9990434112804444  0.0120032979699732  0.9923668443043486
  0.8429343040975645  0.8180504566978799  0.8306736822635766
  0.8354751102296772  0.8114051815113064  0.5108336806813678
  0.8410533519520289  0.8318956571871228  0.1833898713469875
  0.8368057846833893  0.4820225258951850  0.8241786889186784
  0.8395348251962229  0.5011049594989054  0.4912297949976970
  0.8523973638155471  0.4951224709583622  0.1600391824301510
  0.8372371972116462  0.1713340488015163  0.8533578193912589
  0.8398369273251507  0.1814988623725905  0.5072177262931090
  0.8322659937258456  0.1726240759036546  0.1727020470076803
  0.5124691495906265  0.8142412654480059  0.8512470720589378
  0.5053864295497159  0.8436782070110463  0.5031744888884064
  0.5248789398706583  0.8331623646931392  0.1786184836019161
  0.4870797773711516  0.4980741812258332  0.8366137016090990
  0.4902229836276106  0.4936647532882771  0.4898096477880307
  0.4988063763585464  0.4905303323657738  0.1707255897801104
  0.5093304372146702  0.1725887726261921  0.8316984489598270
  0.4974194676704359  0.1645742606329445  0.5209513489925740
  0.5248169971934591  0.1538469022908368  0.1430360896019953
  0.1572033313314170  0.8389190661024802  0.8420980171804037
  0.1522392937631745  0.8308529149688616  0.4941764041035164
  0.1463963989160839  0.8412209045696900  0.1696808030486476
  0.1626688414298074  0.4889649235052642  0.8323742314224460
  0.1639051848783731  0.5069203647526507  0.4805696221933748
  0.1730746747675715  0.5191525050538918  0.1668582817242761
  0.1520345489237856  0.1805101884192963  0.8164535868783444
  0.1527098455614854  0.1759631505733744  0.5069548140409975
  0.1627523830732063  0.1587535113050879  0.1563683197046692
  0.6871958388714974  0.8094973470535747  0.8735754234041199
  0.8421739071281834  0.6594779318056101  0.8208294119256552
  0.8181752897107624  0.7875874529054708  0.6541401696227594
  0.6803751808890898  0.8027597651323517  0.5042558137023346
  0.8617636634037873  0.6533763351890410  0.4775372245039053
  0.8543214734080723  0.8037299574960111  0.3389921841394463
  0.6745366179808623  0.8268390294863611  0.1553754757541517
  0.8530487740613858  0.6730928512831483  0.1598102070729166
  0.8430181088961278  0.8660821851019852  0.9968074368350782
  0.6796171320734850  0.4864390792648893  0.8151052607859011
  0.8535827766184156  0.3427538493135649  0.8439880380577643
  0.8606962250854664  0.5108609311577608  0.6663635650754548
  0.6760479383337000  0.5214349914951532  0.4920918913168325
  0.7827271554515354  0.3456319571057759  0.4940402111844983
  0.8535094170556151  0.4677046582449620  0.3296324431876155
  0.6493563529036965  0.5097028864920073  0.1562298292386373
  0.8117785949411842  0.3254213165834235  0.1195884988564817
  0.8544860870848640  0.5244923686825520  0.9937406964477553
  0.6525863598790542  0.1376657644978670  0.8231482542650372
  0.8378660165987419  0.9897787284428190  0.8222464012733464
  0.8282161571993237  0.1889649792455766  0.6674812862729137
  0.6630004623617972  0.1623893237869193  0.4830297586134267
  0.8123893578354490  0.0129613320589617  0.4937318338170307
  0.8457312791282676  0.1834600768433203  0.3374657020005883
  0.6752925615551506  0.1735047752686547  0.1666643060039297
  0.8357105733738535  0.0253199842055704  0.1813066338507165
  0.8670849037438778  0.1456491432108753  0.9996696599552970
  0.3196128913142428  0.8470498319503532  0.8712169053630024
  0.5155378222073970  0.6615200563680931  0.8395420922804478
  0.4962208161385187  0.8341149054180671  0.6748457442815554
  0.3394264104505521  0.8539085462180990  0.5080602276738364
  0.4803157989626516  0.6824734017356853  0.4880246055786290
  0.5022477981445795  0.8739407270534620  0.3375657414485354
  0.3129647416635641  0.8650009007734670  0.1477230146605918
  0.5149949128601816  0.6870793458530613  0.1465128652722534
  0.5118223546815203  0.8350619401272443  0.0090343092886438
  0.3213119627556497  0.5222612987119069  0.8169578731444828
  0.5242691486262316  0.3395029316239764  0.8231678492034453
  0.4861330260598440  0.4900819969361643  0.6663589497387223
  0.3272794514518122  0.4917423845683790  0.4787772926101850
  0.4831835020045094  0.3361537760871829  0.5239884429895959
  0.5131338795363336  0.5128837846651151  0.3359849076468409
  0.3436586337488268  0.5015604608460732  0.1656637495828198
  0.5009979325690959  0.3232052059717490  0.1819473154629228
  0.5050627486972933  0.4642687019892698  0.9927631281484737
  0.3238756406116078  0.1852708677734401  0.8454196021530320
  0.4985823300999713  0.9977966644579825  0.8343853846463293
  0.3439041372746668  0.1472811708134313  0.4910788249040530
  0.1617066955413725  0.1591118982751765  0.3324129001710655
  0.4808936877040501  0.1460903329656315  0.6616377436592641
  0.5376429370022029  0.9965969114382521  0.4885041957447076
  0.1645914733048700  0.1589259791514068  0.9766878230125786
  0.5173575604131122  0.9945949094984752  0.1554561732975028
  0.5219414804674840  0.1597800087526129  0.9969143360296709
  0.0029095598088346  0.8502423494361119  0.8201115246367046
  0.1590276949952172  0.6543825595675417  0.8897245676018894
  0.1763444789008942  0.8280317296630180  0.6646821250300742
  0.9930546832423873  0.8067738125564921  0.5387010838720857
  0.1879501884542259  0.6627374526448097  0.4898735742503166
  0.1465554154849523  0.8085778424231529  0.3490499745293599
  0.9864950353304091  0.8386751819930376  0.1585742279930402
  0.1510071810399469  0.6809919596153788  0.1999184448066587
  0.1317232717936897  0.8453734120958046  0.0050029961023357
  0.0027697788703611  0.4681152612725130  0.8372341000309282
  0.1763620900542156  0.3219623646148889  0.8274648086722044
  0.1370607872685737  0.4796064376011413  0.6638654128554748
  0.9936964370853723  0.4985154317087042  0.4863467687347325
  0.1531840208039854  0.3453513122441130  0.4864473749784186
  0.1582167013847710  0.4857095321778780  0.3378579246520292
  0.0074494415422583  0.5067155085783844  0.1587646916040749
  0.1849084791204716  0.3090439156444459  0.1608410060952472
  0.2195797590911793  0.5018343446442770  0.9994358538662975
  0.9828121383168242  0.1599199060866400  0.8201082858039100
  0.1442255105073058  0.0226575320707257  0.8033559089981233
  0.1550982620778391  0.1851103633657566  0.6595622996044056
  0.0060518573576159  0.1620298639534674  0.5081422106289528
  0.1363951059157333  0.9813391613958431  0.5078708369261650
  0.3833503272211101  0.1527877533601999  0.1916453525001624
  0.9973699111197949  0.1810175718192947  0.1632724383596558
  0.1327966918313284  0.9957939228687436  0.1794268557820691
