Cl O  Li
 1.0000000000000000
    11.7780000000000005    0.0000000000000000    0.0000000000000000
     0.0000000000000000   11.7780000000000005    0.0000000000000000
     0.0000000000000000    0.0000000000000000   11.7780000000000005
 Cl  O   Li 
  27  27  80
Direct
  0.6729730186606162  0.6718274946965400  0.6488925303529177
  0.6564112471647991  0.6821042706687869  0.3542476924787304
  0.6673246562082588  0.6696675171057391  0.9904157599024437
  0.6540112315784992  0.3099950947663164  0.6400431484787154
  0.6454351262213516  0.3065774581586195  0.3560407912847091
  0.6646713234120016  0.3413354983628158  0.9872031717747102
  0.6735480329379093  0.0267120393202700  0.6757292154921247
  0.6649488508970993  0.0052600560338097  0.3437164657050482
  0.6731331789423153  0.9919170283457898  0.0171282117657607
  0.3171220344075725  0.6772351713868396  0.6689937792976283
  0.3426176605854194  0.6646850991613865  0.3125485501975727
  0.3299536826591169  0.6614051736755803  0.9940315643681689
  0.3403069558134340  0.3176650151929103  0.6755362620283790
  0.3299963947665973  0.3376977223386026  0.3152513966501792
  0.3600405567505335  0.3483722674634513  0.9760334230324079
  0.3336355472947483  0.0006395321081813  0.6779728764252594
  0.3330345211415724  0.0019271168014484  0.3321328004574256
  0.3283109669083382  0.9673378223161954  0.0151411751945074
  0.0096103259751982  0.6691416926015158  0.6780618228708845
  0.9969691764431301  0.6818279982313969  0.3467443290286051
  0.9793182250149807  0.6380347683641060  0.0039017482150783
  0.9938167755705243  0.3348874680934411  0.6825217361146282
  0.9840751354304934  0.3386284414275763  0.3184502298598876
  0.9656399344843741  0.3430513105212303  0.9891562967544675
  0.0132487459704632  0.0059546325828215  0.6684007490129145
  0.9955903218212585  0.9971728822184986  0.3267893133845763
  0.9996620079756003  0.0184436686247073  0.0006147345800744
  0.8171934657312686  0.8519414560211040  0.8311201134739080
  0.8378729273006571  0.8398389904878817  0.5166175059103535
  0.8324899871958271  0.8193967734207065  0.1671378118321545
  0.8326187307994174  0.5119492343630776  0.8284159310027738
  0.8372665368306651  0.4995804153178992  0.5129265725428969
  0.8236485404619720  0.4991882736372782  0.1863275317722002
  0.8357077675773846  0.1705529584458340  0.8364985192128254
  0.8419889979578311  0.1652835394304590  0.4999922937771697
  0.8181601763496736  0.1567052579825275  0.1670524281026036
  0.5030821496547268  0.8285068813348843  0.8474053696198757
  0.4915072090129449  0.8437255898415496  0.5073791807029148
  0.5184093185746053  0.8135880887450103  0.1737978237079438
  0.5225659556125332  0.4885741327440509  0.8055517957425246
  0.4966665886841190  0.4877796065740955  0.5145397946725386
  0.5047257763272288  0.4744881655219301  0.1606315129365322
  0.5307516601616867  0.1540662772640920  0.8299467653231997
  0.5012546382503040  0.1516976479918435  0.4802850893273472
  0.5076314951690148  0.1601880153721033  0.1666745575289842
  0.1648361446979755  0.8250312898628668  0.8224385031384723
  0.1716261754677680  0.8359807309211676  0.4658909066793985
  0.1541244845735696  0.8327547724868033  0.1672833265168099
  0.1733748415363440  0.4996872968001251  0.8357004708122058
  0.1514001100042308  0.5237089099303884  0.4997725794574576
  0.1587595781860981  0.5017816475414230  0.1620369639423924
  0.1841252765621141  0.1818381652514228  0.8543286176310562
  0.1680467591619746  0.1891030291516267  0.4979212221465839
  0.1947590731218643  0.1835586129892748  0.1666270377790741
  0.6712736435786349  0.8240481421680284  0.8471197855382011
  0.8554341216261060  0.6698964216135063  0.8278790134962285
  0.8561580817265465  0.8192938595086542  0.6722390087871211
  0.6672274102535971  0.8753361120931289  0.4969365360061682
  0.8327754903066820  0.6768449730058955  0.5189764692909803
  0.8244217308208923  0.8346180729936076  0.3233377904887647
  0.6825636883907108  0.7893857487448014  0.1698139277928520
  0.8566580765392319  0.6696991362108976  0.1883737656037914
  0.8319452964905746  0.8348272206213269  0.0033590517325572
  0.6747766841585877  0.5392116235877411  0.8180809774964517
  0.8292198996646348  0.3558347811349532  0.8314184909451219
  0.8617386716026745  0.4863364231661766  0.6578272554712610
  0.6616005860393245  0.4969882559760525  0.5136020716076463
  0.8361268725410220  0.3261360406685741  0.5192488551290165
  0.8187278627677688  0.5084875698720774  0.3499102880854470
  0.6589594798368674  0.4894452168241917  0.1455650801779813
  0.8248250464746550  0.3376537551834142  0.2145943235319172
  0.8255897348974892  0.4907637051695136  0.9813734283600029
  0.6741329256552265  0.1687198094480781  0.8116991003869094
  0.8152478988714784  0.0130298027273640  0.8531421522075292
  0.8347538503485188  0.2023494909133552  0.6599511200764009
  0.6532841945869037  0.1589070873658477  0.5121129777448623
  0.8393462723389767  0.9847282365308518  0.5172067710519435
  0.8290060557293633  0.1757263460688454  0.3457318698969746
  0.6707972112745312  0.1380372431562444  0.1769821024127809
  0.8001138048715752  0.9943760852603408  0.1727923483095270
  0.8184139388991404  0.1999134433122142  0.0102141349650994
  0.3384828046980360  0.8185035033359218  0.8393569510958085
  0.5040220589317553  0.6830795641940979  0.8087679567076849
  0.4687082552626895  0.8439345755276291  0.6767939412879800
  0.3329644408969767  0.8331188172929304  0.5064056280502310
  0.4947426815186435  0.6402509397038953  0.5134854331416264
  0.4955548188419203  0.8383167390743618  0.3298530265386299
  0.3357434808910790  0.7969433221588282  0.1550757811021037
  0.5052257711399143  0.6471467790925505  0.1911378259962181
  0.4915972080792282  0.7927680618323308  0.0017769168626302
  0.3630433596053413  0.4681995263114658  0.8239433458257206
  0.5257343033085612  0.3402783433386181  0.8199883261292642
  0.5165822120242820  0.4352561029086280  0.6521347234366656
  0.3280742284737490  0.5151411040822773  0.5011117963326658
  0.4811636321143068  0.3049992154231608  0.4925474722298089
  0.5127406729318708  0.4596927319761253  0.3304094782554682
  0.3108070189525360  0.5046806862905697  0.1435868314710218
  0.5053279158291778  0.3182231470542610  0.1620923074977723
  0.5013496575074192  0.5220413968660254  0.9954826278815805
  0.1976868767547692  0.0149387163743043  0.8063879004284825
  0.5270311319595683  0.9876550052554652  0.8547290183353038
  0.4896343539493961  0.1476993392708151  0.6907325821033509
  0.3315149012796982  0.1419414840272910  0.4846901448406304
  0.4887336750345936  0.0030829379325779  0.5147437196823763
  0.4943064512266043  0.1437140466090806  0.3367773474131736
  0.3529473105030401  0.1701782254914845  0.1605193278656050
  0.4885137987732418  0.9940976250293532  0.1516611606574469
  0.4888259817692432  0.1731668584528153  0.9741729008368604
  0.0023528620488288  0.8242301645710920  0.8168967792558812
  0.1693078391960101  0.6601814616749140  0.8199301890805991
  0.1825954543769365  0.8320531603326464  0.6582615424636235
  0.9988117797329823  0.8370279265345214  0.5230610422992255
  0.1650316993493093  0.6820168221833294  0.4982316642699581
  0.1554127606817283  0.8393707362365844  0.3238664489716833
  0.9887278224839762  0.8520667178794400  0.1899429396074248
  0.1367509502445176  0.6667235395515656  0.1625936788143954
  0.1800301975899909  0.8243469244933416  0.9778045863372167
  0.9912113170878064  0.4986754044642338  0.8460726708956670
  0.2017306404698010  0.3310048767953567  0.8404402596948234
  0.1705148712077835  0.5144492084265047  0.6813508170885161
  0.0097460786153833  0.5144629329804723  0.5124855649724853
  0.1813564996194301  0.3485534801583161  0.5336116615842662
  0.1758167797646306  0.5064514371502647  0.3489070596272816
  0.9682890770407030  0.4820822162903078  0.1736912661089974
  0.1614746411111521  0.3393341426081364  0.1524351607245659
  0.1621773868567871  0.4951105426633117  0.9915775210023120
  0.0117904766866678  0.1951507599302786  0.8355537516866046
  0.2159536305618436  0.1574449061793174  0.9937955917505332
  0.1653159777765137  0.1654832539576636  0.6839509520561197
  0.0052427365458863  0.1568347100807916  0.4878986540633130
  0.1627147395814892  0.9929247215855695  0.4884053289686374
  0.1916034985726704  0.2090245431189351  0.3216225248833842
  0.9711464993187757  0.1454603139171180  0.1721738122165547
  0.1966371912887044  0.0265145059445256  0.1783463797567382
