Cl O  Li
 1.0000000000000000
    11.7780000000000005    0.0000000000000000    0.0000000000000000
     0.0000000000000000   11.7780000000000005    0.0000000000000000
     0.0000000000000000    0.0000000000000000   11.7780000000000005
 Cl  O   Li 
  27  27  80
Direct
  0.6722821707903301  0.6769124691661144  0.6608513507545448
  0.6493062957986632  0.7068121184792910  0.3616677340580622
  0.6708994725848531  0.6605910595490756  0.9893526620123581
  0.6691323249266420  0.3237023684457730  0.6588619786812060
  0.6659093624126129  0.3210807964536092  0.3430963477839392
  0.6941174908133355  0.3304039588375646  0.0164116284993005
  0.6700911813755199  0.0115443835715451  0.6862150957095315
  0.6462207407659502  0.9925464113891306  0.3367259685308180
  0.6711543687257976  0.9886352437174782  0.0077761392693786
  0.3491458876167020  0.6867154848713130  0.6477886117830971
  0.3122395093770607  0.6566447847011651  0.3242329200052570
  0.3316367170430183  0.6865349199430072  0.9927666618915906
  0.3189759981922154  0.3445215451648440  0.6231008517177788
  0.3239696710805297  0.3308728810981257  0.3299089339925995
  0.3362875797227159  0.3144463713568981  0.0060246468131215
  0.3580166053019396  0.9943660319341232  0.6603113563568446
  0.3248013830995096  0.9775427664407111  0.3458315015936731
  0.3413741463841238  0.9634906728550146  0.0194222399775493
  0.0132105304993283  0.6844591520048691  0.6600778769977551
  0.9742542709456947  0.6665713213920723  0.3437206732905320
  0.9956311180557015  0.6629649620459679  0.0001820854962245
  0.0018310505700777  0.3384162846186758  0.6829380446878306
  0.0097334764918770  0.3298943284973149  0.3271047728016331
  0.0123139608536340  0.3336298565438139  0.9607669186021661
  0.9961584639257199  0.0054073514673467  0.6701480964085185
  0.0016287120822417  0.0116143550116018  0.3460604465868501
  0.9970117277833522  0.0064790628941693  0.9912441789521327
  0.8353847701417594  0.8270669032562091  0.8318012775988991
  0.8330067381330537  0.8412761485515791  0.5126717139902128
  0.8293449137753398  0.8322655537750193  0.1990738541251592
  0.8210855662655160  0.5093462723986374  0.8360528934085323
  0.8347217000978596  0.4874608314381336  0.5163782342404940
  0.8364220063442694  0.4868195425447784  0.1791625019957443
  0.8347887439367104  0.1530558696275220  0.8371442181187141
  0.8327433400560230  0.1813730758439595  0.5152418087836456
  0.8534959182757522  0.1788274949662418  0.1782206089336289
  0.5081258171891379  0.8416827840089566  0.8362935386851802
  0.4917623027457677  0.8438779029355801  0.5043022461653686
  0.4965339536460036  0.8240756792286423  0.1618579548052198
  0.4969722082085395  0.5059553764042019  0.8407317112637894
  0.4876416977226811  0.5045618685942723  0.4984882579009709
  0.4902290797861557  0.5199554740718526  0.1718623348180779
  0.5052571829828515  0.1616730474330478  0.8414411775874734
  0.4992626702755579  0.1804633079546266  0.4918311204892868
  0.5030624284249173  0.1617454657100673  0.1585140320076603
  0.1674592401791928  0.8515312648295110  0.8310950501080095
  0.1430902116249329  0.8310892097039757  0.4982640092153462
  0.1534311468505727  0.8314147123998455  0.1654162782124375
  0.1871113541074476  0.4863006410456538  0.8113746069291385
  0.1426536878136716  0.4958804606858861  0.4867604848366880
  0.1755007660622188  0.4908265050221803  0.1273530496266361
  0.1959980837723141  0.1557184330972441  0.8187204416492105
  0.1632742127475486  0.1571481854704172  0.4898308983260857
  0.1743060416150654  0.1518070465513442  0.1675259729241003
  0.6594910484341299  0.8504333005121000  0.8289831691842104
  0.8465031973011251  0.6806261553339539  0.7913876078112621
  0.7926988972069843  0.8269927339852098  0.6581627956516451
  0.6496904618535273  0.8492223009301528  0.5024058690786481
  0.8393219762578448  0.6665327792818152  0.5019919867328926
  0.8472671569865803  0.8346209949249817  0.3534345806084659
  0.6661446636151497  0.8194826904424455  0.1797914428390696
  0.8339804122419674  0.6539562700836751  0.1908467937297580
  0.8287284829236840  0.8356342637648108  0.0122416831480259
  0.6562981260942718  0.5177257401197353  0.8064637267041397
  0.8507621814553661  0.3029110254460318  0.8326576249898238
  0.8465918603488805  0.4811075775134146  0.6843744670322905
  0.6521930269831900  0.5085571712736130  0.4992490192390414
  0.8557299841667324  0.3488010554219216  0.5090520754296500
  0.8582788646053597  0.5061023789276724  0.3272345690258817
  0.6722055319093251  0.4692419111428964  0.1952311207131549
  0.8191908490806029  0.3297354435060288  0.1693488791131429
  0.8118008852637030  0.5078651541616104  0.9878355471852234
  0.6771097320416851  0.1621144801002636  0.8476762546005950
  0.8313153386768294  0.9823047628358470  0.8161713182981238
  0.8433020159376405  0.1720191850338641  0.6686841844707134
  0.6548406513366465  0.1567716610366782  0.4878797444797245
  0.8412017948119023  0.0218269173281860  0.4687897805897564
  0.8649518318123279  0.1653714604799897  0.3615091122219407
  0.6852233320757461  0.1560970324082423  0.1678460404536864
  0.8100416322604290  0.0139228685107744  0.1901534810846375
  0.8331368582405817  0.1501299586875315  0.0043589268096092
  0.3466120272651601  0.8292519818011690  0.8475115599529833
  0.5335956744035618  0.6894817719612862  0.8402079920008825
  0.4824319137161390  0.8239802956028377  0.6677754894447440
  0.3396740830501737  0.8305460574443008  0.4898887924622913
  0.5091449564134074  0.6655311297546371  0.4901524334517818
  0.5048728145009377  0.8396821569916558  0.3227560729789781
  0.3292697780366346  0.8186025376304793  0.1561710806066625
  0.4707754354587501  0.6723123954331789  0.1707920422783567
  0.5148892288018987  0.7987379663922431  0.0026471157483483
  0.3292660128935107  0.4497031259983995  0.8560473418418366
  0.5410539775924306  0.3565109349481205  0.8405547090515576
  0.4721406439671358  0.4993854040801059  0.6943113679881411
  0.3073370298746230  0.4843565316606213  0.4523339998971466
  0.5021893200742797  0.3498651739366279  0.5323664084483657
  0.4960307604859334  0.5036466149318933  0.3245483620767580
  0.3407124933295718  0.4742378512141668  0.1716460010300954
  0.5087107908772749  0.3334103851365615  0.1544446916349027
  0.5077392220096777  0.5340964609660737  0.9898072764760144
  0.3468668424352850  0.1510102329557274  0.8175750284313569
  0.4828174967603507  0.0107241061505334  0.8156981248268146
  0.4774406699524209  0.1606367120309087  0.6621441713499685
  0.3192420885490069  0.1582029619767813  0.5075736697150888
  0.5054179505456995  0.0115493797241648  0.5045739437514358
  0.5128839864478658  0.1717675277257141  0.3295411847714636
  0.3317224448985536  0.1501369626634501  0.1579088560999663
  0.4950209733913585  0.0021721459123198  0.1414831661882899
  0.5490689956533021  0.1456242868092097  0.0108455690898317
  0.9968881157054711  0.8438821134182132  0.8279159737783491
  0.1766645394134778  0.6901620887898177  0.7822413059406033
  0.1918609607019744  0.8595846225735903  0.6662096757301349
  0.9926894427929256  0.8401521116301703  0.5100651823278394
  0.1383669205468632  0.6760017903550581  0.5128112671982555
  0.1817039405723125  0.8306671897908234  0.3177369954959303
  0.9887240158157782  0.8077540671845539  0.1897624527527896
  0.1253323391780245  0.6704745602492231  0.1465020817296980
  0.1383574773249961  0.8548818373556522  0.9937496546032191
  0.0267332204175296  0.4912211163128073  0.8407632898835378
  0.1961882842281842  0.3150240576712469  0.8296791943517963
  0.1854225052320491  0.4928028812789302  0.6469656648553678
  0.9836027126726469  0.5003111029782477  0.4845544348493822
  0.1484053184254184  0.3243195482775125  0.4536137841905715
  0.1442702398682804  0.5135749329808380  0.3001465909472141
  0.9928547871048499  0.4812940533115708  0.1246157703328807
  0.1641737378281681  0.3383126824546545  0.1179109613509994
  0.1898364877782228  0.5249219407646911  0.9768028276386883
  0.0177362439207365  0.1551003119797237  0.8501442451901743
  0.1848246166981432  0.0167691193460435  0.8637167359581015
  0.1662849406213510  0.1180680443578926  0.6641513165182684
  0.9837953397227750  0.1950953221432328  0.5228959803857751
  0.1705548254722169  0.9874842700816037  0.4719799499217388
  0.1657193088378100  0.1532055138239907  0.3262512998748135
  0.0185939994448256  0.1713702039126214  0.1502807267377767
  0.1457884933475693  0.9788506286310944  0.1747467785769435
