Cl O  Li
 1.0000000000000000
    11.7780000000000005    0.0000000000000000    0.0000000000000000
     0.0000000000000000   11.7780000000000005    0.0000000000000000
     0.0000000000000000    0.0000000000000000   11.7780000000000005
 Cl  O   Li 
  27  27  80
Direct
  0.6930197687260129  0.6664928556889457  0.6748159050554747
  0.6938495576880208  0.6616803954954962  0.3539146189372551
  0.6584850258003077  0.6852025806088134  0.0019436931138368
  0.6647858511191621  0.3329766599612635  0.6642718848922534
  0.6670655845525478  0.3375423615811650  0.3256919360316612
  0.6592732767317234  0.3315681320642484  0.0132647927656703
  0.6571790069612453  0.9866566471710287  0.6796699032795166
  0.6669490675427577  0.9906014841543023  0.3456159196089755
  0.6340296115026010  0.0219820220763213  0.0056298131456030
  0.3485389701540094  0.6547373096334481  0.6765828098012260
  0.3482877581853687  0.6811609221350980  0.3395594237390729
  0.3322737340432542  0.6774534302349785  0.9991268898791802
  0.3352587030749859  0.3271354452586852  0.6475654995121517
  0.3274481565769861  0.3241632898591976  0.3391759864215876
  0.3366686682040538  0.3396254776212061  0.9995227927492718
  0.3195197772933732  0.9921354225670178  0.6520943998944232
  0.3395925852376051  0.0020357408431935  0.3473177238155530
  0.3098218414696583  0.9884543132373155  0.9890629803409597
  0.0309583909810902  0.6358067772878002  0.6483926164371042
  0.9913054673494951  0.6747768183280092  0.3343477166755590
  0.9828735393933061  0.6836640540604999  0.9912019599208645
  0.9915281073726594  0.3096026109628951  0.6729420378566776
  0.9930535394211972  0.3066918921729823  0.3503355467574463
  0.9980288877589862  0.3272611524565304  0.0154338175804224
  0.0176236166234359  0.9955874385624709  0.6630332742607312
  0.0053776701648227  0.0150327292948626  0.3250589061619325
  0.9906474465953157  0.9942621831441371  0.9803164301428208
  0.8366296958148600  0.8569802316592688  0.8373312635358108
  0.8425594318662591  0.8282408537093919  0.5069452175198839
  0.8193153815191889  0.8467821998093439  0.1561494540996065
  0.8339823548592730  0.5354991134999740  0.8376938508671798
  0.8419183858853634  0.4702841220721539  0.4848182001183037
  0.8411921586019667  0.5035606189425190  0.1617321694597560
  0.8267970043041797  0.1518242579932441  0.8316356141246503
  0.8327512745139987  0.1483648404424952  0.4894086788090848
  0.8196160261733589  0.1792418176728322  0.1494199287749604
  0.4880341626042104  0.8435355128450933  0.8454395194957605
  0.5171058447988262  0.8342291316635555  0.5125577503844497
  0.4599885831243730  0.8304091712946391  0.1804479975551712
  0.5178133273374234  0.4927445773099507  0.8185073292745192
  0.5086413982022765  0.5149332539908603  0.4957842401946775
  0.5080971123511233  0.5095027030439480  0.1544552712714492
  0.4917138815131152  0.1611605882567806  0.8384684177300381
  0.5150828293498320  0.1860160388900454  0.5016562440515108
  0.4913577313619256  0.1843583840230011  0.1815634313269689
  0.1566283802042174  0.8141558176516994  0.8211427675195855
  0.1639770084175748  0.8220533065675328  0.4970476278970793
  0.1595636635166077  0.8287795525739741  0.1704339314079864
  0.1682350614073875  0.5120077782690265  0.8277368691480020
  0.1665838639632277  0.4882044219837177  0.5032288998003986
  0.1727997407706881  0.4924553090559720  0.1953408389972775
  0.1564919443727397  0.1718876632010188  0.8262444149961936
  0.1865510555942942  0.1610900727940280  0.4877365099225791
  0.1831290870477343  0.1874085143220218  0.1511842829398859
  0.6584415444700383  0.8635749000834246  0.8650485468264929
  0.8506330323153053  0.6917434034377570  0.8020273383067686
  0.8426271234716687  0.8653500233673928  0.6716161811667478
  0.6864680148363870  0.7973589068949856  0.4981216653372194
  0.8663080113919274  0.6514656836566783  0.5109374837934795
  0.8099025237095244  0.8356593192548856  0.3110851442534439
  0.6226775025570961  0.8446112911578606  0.1391927777939403
  0.8230849780381474  0.6763127942954967  0.1659174296825073
  0.8524081555992732  0.8670207752645507  0.9959751189026205
  0.6974752690600737  0.5130022618786464  0.8528906162816611
  0.8047282454074947  0.1674675876006501  0.9798627402748348
  0.8380842556229701  0.4187565999764738  0.7240804546774818
  0.6877770700811943  0.5050213325329391  0.5347271964956407
  0.8456172948785771  0.3256105218081096  0.5074402731125572
  0.8485742682493395  0.4727159187052519  0.3110126348842521
  0.6644551662908208  0.5200482616527469  0.1513848780247566
  0.8136204608454071  0.3267439715873280  0.1605221921344099
  0.8644269782755718  0.5039968897199681  0.0050617263015002
  0.4851309133724304  0.1727152659508904  0.6686758068140584
  0.8679391685581697  0.0118906186748099  0.8069351416406128
  0.8258489979451642  0.1910516749057563  0.6728424842336499
  0.6789676877920068  0.1493881091785781  0.5555395716658427
  0.8309976894681158  0.9823806578794462  0.4969270218608858
  0.8368543898399939  0.1847561936610130  0.3314140831436235
  0.6500709835391260  0.1705155316875342  0.1712985175798328
  0.8330277088930285  0.9997143055398222  0.1727311950238736
  0.6690003013224759  0.1356727352776410  0.8243010649555098
  0.1873613103460090  0.7693219508074639  0.6454706629459347
  0.5436398205279562  0.6750157227320299  0.8243189288997308
  0.4897917557056768  0.8430224817304092  0.6884507028692906
  0.3401251303198774  0.8308208269428484  0.5088973025306736
  0.4905998849733703  0.6768408859826763  0.5192850085261396
  0.4686390601795693  0.8370360661051024  0.3340828813664755
  0.3109590361492956  0.8151499773780397  0.1667645970067295
  0.5082434266226250  0.6574823823686158  0.1800674549444962
  0.4594937704441591  0.8421351225154748  0.0029917629590114
  0.3456929672918762  0.5263862525779209  0.8202036679507555
  0.5169809068237696  0.3407531987149189  0.8003389347708796
  0.5302562346827810  0.5042532838210804  0.6607745527551013
  0.3415427269487179  0.4774374891533993  0.5235189322116315
  0.5137330862680410  0.3402362405154711  0.4815573837459864
  0.5164293740842382  0.5363815334948964  0.3425639674665079
  0.3720813979722934  0.4468308836119544  0.1971425207101621
  0.5442958865959373  0.3286324135337013  0.1615754909233113
  0.4962210007448422  0.4737347340462421  0.9806238054963924
  0.3370677936178885  0.1389811827347458  0.8200470703851305
  0.3143559037416963  0.8239344917470878  0.8206872256870075
  0.4827766462993561  0.0025356935890076  0.8415613411073590
  0.3655514657186222  0.1499190044803957  0.4966356483655905
  0.4901020358874114  0.0002686709928798  0.5154733071808496
  0.4865680644542689  0.1753249554752386  0.3434969537384378
  0.1771813754743244  0.2180617185703008  0.9890866390023898
  0.4625289616269140  0.9937732946180486  0.1810180523697475
  0.4719517383620122  0.1750804438419420  0.0156632129737849
  0.0085851862297929  0.8360710558739146  0.8155724609375806
  0.2010057639300941  0.6775540364786645  0.8440008299683444
  0.1593089596813601  0.9811810483716378  0.5287083925423867
  0.9882253601347565  0.8129659514537382  0.4811046758921039
  0.1635291992982944  0.6442189572201248  0.4623784734103931
  0.1629227683428924  0.8491768308361225  0.3346912353788493
  0.0050342836716992  0.8075498942835821  0.1771694485733027
  0.1887399397677879  0.6459886149737517  0.1613980534929229
  0.1640381616292802  0.8109294543632359  0.9983563516309027
  0.0107817607334206  0.5365482524130047  0.8307925459481836
  0.1794463317330843  0.3500064630386232  0.8195795448712123
  0.1655015168926986  0.5165454234998438  0.6742713762918618
  0.0046482767958522  0.4558605065311831  0.5154713233957628
  0.1638690641933382  0.3157058067531566  0.4975437361104109
  0.1915700925919320  0.4625896674871399  0.3472294251364867
  0.0155378513193822  0.5334554100065035  0.1952190386414909
  0.1477146467709249  0.3455522177522701  0.1977749837841517
  0.1862483461842173  0.4883962418559851  0.0229457829149896
  0.9854576294868854  0.1982298797859963  0.8597548365651577
  0.1422548147512777  0.0193592835982837  0.8213518341764847
  0.1565335026460370  0.1711503024298901  0.6574712671877631
  0.1762247457229930  0.1540084964659479  0.3075557881570341
  0.9941022310969652  0.1561967025088254  0.4804369500260617
  0.3384570504597751  0.1967560084373476  0.1429509776700023
  0.0070406305183220  0.1870481334454939  0.1388633075278970
  0.1267129517025188  0.9684485769656538  0.1590532296417156
