Cl O  Li
 1.0000000000000000
    11.7780000000000005    0.0000000000000000    0.0000000000000000
     0.0000000000000000   11.7780000000000005    0.0000000000000000
     0.0000000000000000    0.0000000000000000   11.7780000000000005
 Cl  O   Li 
  27  27  80
Direct
  0.6718588803194343  0.6549982075167681  0.6806581876632423
  0.6519647547319464  0.6869120464595734  0.3266346945719161
  0.6705386511014853  0.6840869745543761  0.0102236224964378
  0.6494414205869874  0.3455522681393852  0.6892396370945011
  0.6755241864224028  0.3267189210202839  0.3233684531546676
  0.6289096902784481  0.3358567411975614  0.0167471580553395
  0.6592903872324611  0.9920494439883613  0.6674292560840153
  0.6942359760981770  0.0043169274198901  0.3324876298006704
  0.6659901962662157  0.9996489775250084  0.9896616850114117
  0.3458078905430146  0.6565834542281453  0.6937035583938284
  0.3369887917554429  0.6819306406504690  0.3284197367813180
  0.3388627399250599  0.6855944892786798  0.0039288487974916
  0.3346825606212553  0.3228503174313317  0.6645686379888959
  0.3269399081557148  0.3478098965389469  0.3367151567913929
  0.3439259667476408  0.3412311388808952  0.0016979606948990
  0.3421596692830384  0.0034973376182627  0.6444701015666507
  0.3510056908682163  0.0115998282028041  0.3527228854522626
  0.3094375593736051  0.9717384464606276  0.9625215288303535
  0.9898979051308375  0.6541885802889071  0.6717605876658085
  0.9863890612204046  0.6868395775757913  0.3178317494629081
  0.9919303694949595  0.6479122081576528  0.0121328359884454
  0.9877445595562514  0.3197037913712582  0.6673713214623995
  0.0142050593270274  0.3276921700323933  0.3374749262369200
  0.0049465913629775  0.3259735441379883  0.9805958327109683
  0.0152358937740917  0.9860373935075518  0.6512915692572572
  0.0159059058006261  0.0154796196817577  0.3209250169662136
  0.9967048455177073  0.9965411702244220  0.9859742017599828
  0.8337412494154514  0.8354910717929047  0.8197328581604585
  0.8238432144531377  0.8463422952467055  0.4995086095525657
  0.8277616353390135  0.8425320513761734  0.1692085343046338
  0.8329290311213546  0.5003928074585252  0.8313267459740893
  0.8310870259401757  0.5082455195109713  0.5074438713558673
  0.8407712979380378  0.4810437774303891  0.1821971242477875
  0.8335750972930821  0.1626679610625023  0.8327455166798178
  0.8352975085733159  0.1742139040294189  0.5194632203424951
  0.8230418462489031  0.1715143166523121  0.1387764310013570
  0.5084450291364323  0.8303861045126817  0.8453016617167611
  0.5119543449549248  0.8161783976628892  0.5094076971355378
  0.4951872314599221  0.8311813189346061  0.1796560979786873
  0.5002726847725568  0.5007126017115940  0.8345842020573822
  0.4843371415975993  0.5021754610287408  0.5057023914475546
  0.5183411612844793  0.5064454572144841  0.1819325520938685
  0.5014453851567062  0.1461219383911495  0.8314937078046573
  0.5006037339695875  0.1621684318320312  0.5015411795583041
  0.5059910060132803  0.1424286062631543  0.1581461895593793
  0.1563135710716110  0.8319753997650525  0.8144056259796976
  0.1786133700814371  0.8309736287816445  0.4935043803468879
  0.1555138830118889  0.8456874842264325  0.1669901463886505
  0.1728839153529817  0.5138935175946394  0.8322864121311657
  0.1617970060852498  0.5204664858390705  0.5133353891802888
  0.1652701583113187  0.4988369531547599  0.1763299988828513
  0.1661573353419083  0.1550954384108572  0.8201843514520427
  0.1630083396718287  0.1638039108157841  0.5162370999664911
  0.1712916849083908  0.1656810472114333  0.1480012239605253
  0.6827803054740609  0.8448232826659803  0.8780775160078818
  0.8330143743654956  0.6685611842133611  0.8388434291240831
  0.8407278166077689  0.8791626834887538  0.6633821320799589
  0.6637123251616869  0.8272811164832006  0.4980897578760173
  0.8529744911711761  0.6788664619142014  0.4830070803467303
  0.8597374979298378  0.8827562494453189  0.3509858994244526
  0.6749968639580117  0.8218985002616499  0.1715157775740697
  0.8131076983009282  0.6899865894607841  0.1891323356976034
  0.8359288380558273  0.8662243561820331  0.0149367340242472
  0.6506174812601614  0.4993370289382653  0.8316514389617604
  0.8136337657176111  0.3239621075162354  0.8021079397997732
  0.8196265780376873  0.4946546888523438  0.6715697394433795
  0.6760026429970032  0.4815074973157736  0.4790497124964979
  0.8375898734546011  0.3379993303047956  0.5472400576711904
  0.8448930365526026  0.4701704084573542  0.3560816765166204
  0.6796710259911264  0.4797604709062999  0.1803314351017971
  0.8403233673625278  0.3248996483967829  0.1286185404353815
  0.8728583334645410  0.4812079862530815  0.0005873105273188
  0.6660493049647195  0.1335947505436616  0.8328214673088542
  0.8356291650514955  0.0041639694293598  0.8413889897590956
  0.8555172987983133  0.1570508837106713  0.6682443083568074
  0.6616277718895930  0.1780990661510341  0.4940379375644087
  0.7918084051054496  0.0122291043159304  0.5091250684887882
  0.8443359573119104  0.1706676250316566  0.3433010398815930
  0.6630781617004801  0.1819089861382868  0.1415336898449148
  0.8389108314099289  0.0239477175562157  0.1712159021426883
  0.7936376168970892  0.1461104810201382  0.9822927786683535
  0.3389438726865677  0.8276475094431035  0.8273559369677588
  0.4787963893648465  0.6747400269920844  0.8492723087814519
  0.5381455712035534  0.8042918003354353  0.6835441496249803
  0.3613699153259206  0.7845403453325549  0.5187148475398644
  0.5498707532016004  0.6556026546870835  0.5021846951492058
  0.4912235478857399  0.8195639495832134  0.3491378619171934
  0.3127442862007878  0.8098777342856744  0.1722301831177659
  0.4794187310863525  0.6726095632651252  0.1786497926293668
  0.5004379867013176  0.7907551796407094  0.0001992366815193
  0.3284990215349797  0.5268177559787030  0.8851030301645556
  0.5083268522248348  0.3272991579154585  0.8191542406816812
  0.4905523402744434  0.5003302575001771  0.6555205132373273
  0.3304694261937645  0.5066427831025024  0.4852225229491410
  0.4878825299163432  0.3366285348098389  0.5044996913746440
  0.4942694272167174  0.5080753593330185  0.3334962428183572
  0.3260978925999067  0.4900448176502044  0.1698278801058047
  0.4788859835770305  0.3036929048484135  0.2017358689068744
  0.5117435779108080  0.4904880924035722  0.0022477438637660
  0.1921653954746428  0.1589759143462725  0.9984438785745778
  0.4999913921443351  0.9895270644134584  0.8530989897284174
  0.4783137627930228  0.1551490208509049  0.6732283457175572
  0.1748154945036397  0.1954136031164598  0.6637283633057147
  0.5175729506309809  0.9909717704523414  0.4964291273313428
  0.5082500918875997  0.1391433670672942  0.3376818674097978
  0.3399152391271152  0.1594931255795324  0.1383029035254160
  0.5026787731703468  0.9895977974852894  0.1422794715813098
  0.5338607168723644  0.1570132626434901  0.9970930217543417
  0.9928015471976107  0.8013170943551217  0.8401752371692732
  0.1961324190951447  0.6720521601411534  0.8119779588584130
  0.1636323817805521  0.8213232835573072  0.6572087143461667
  0.0227399619233837  0.8534718569069100  0.4848265756399860
  0.1569349107792213  0.6665621361270478  0.5173231210879718
  0.1613251587538210  0.8198569829803162  0.3329060869977487
  0.9877899905120427  0.8309192973615132  0.1788651750102159
  0.1539211869850838  0.6619377711481521  0.1876450231928566
  0.1659164370314483  0.8234292536112560  0.9816608140709737
  0.9888311398824566  0.4987183713890631  0.8300242493656913
  0.2014284775102562  0.3405492836067862  0.8522512252443986
  0.1729496029305997  0.4915711985755375  0.6769632867256121
  0.0076561950835358  0.5251778944493247  0.5273800612842768
  0.1866433475012795  0.2092547550647094  0.3598466576988464
  0.1595611588362325  0.5090819075947985  0.3443588021869396
  0.9946109704799763  0.4871229451298547  0.1695624982436871
  0.1625144075492810  0.3320026516280706  0.1560817271719653
  0.1484155862095061  0.4884772630629682  0.9727207828335911
  0.9933978441488386  0.1690018933253304  0.8631586424471881
  0.1460232729724462  0.9856657931117960  0.8277557708762672
  0.3256777957437261  0.1349195546129332  0.8217129185895123
  0.9912261049138672  0.1834232416833448  0.5011782278582455
  0.1974643890819746  0.9984760805652162  0.5157235020560680
  0.3086533974685927  0.1941963080532680  0.5047835345836917
  0.0056664535808312  0.1518405430297426  0.1551374252279588
  0.1830008346841040  0.0179545332764355  0.1707291865444613
