Cl O  Li
 1.0000000000000000
    11.7780000000000005    0.0000000000000000    0.0000000000000000
     0.0000000000000000   11.7780000000000005    0.0000000000000000
     0.0000000000000000    0.0000000000000000   11.7780000000000005
 Cl  O   Li 
  27  27  80
Direct
  0.6529653360757152  0.6877971264109439  0.6796018622062974
  0.6746547871667282  0.6834271312626636  0.3260169880461967
  0.6759944898668556  0.6485913388286890  0.0035946758306922
  0.6727882478271293  0.3406775090621449  0.6660079951419250
  0.6745329665682367  0.3312831328421155  0.3384769802345465
  0.6738210306345467  0.3270422254234098  0.9777275422470155
  0.6564880930503059  0.9859398242406940  0.6720682561549514
  0.6796811317808593  0.9766016025494121  0.3493220499060375
  0.6690575173017074  0.0005402196404338  0.9982205164735802
  0.3329277454503234  0.6648226279232147  0.6601632379659773
  0.3254603937723344  0.6805616144329422  0.3244850606197026
  0.3225341083423020  0.6651382116936505  0.0090094159598563
  0.3435232023268660  0.3445123478192120  0.6521327544785107
  0.3458999792878637  0.3461897798090091  0.3476071284266415
  0.3337009155665388  0.3324687885574438  0.0024856498238933
  0.3210694474244132  0.0131314905148788  0.6929082828601384
  0.3086052042680203  0.0113696464453693  0.3284970028025262
  0.3332738349771445  0.0088357095510993  0.9841967843408576
  0.0406195609655511  0.6562659960482452  0.6830743767871599
  0.0132869017209327  0.6607404435541554  0.3482975261222467
  0.0036018038839664  0.6407861971329153  0.0069751468320696
  0.0190486916402349  0.3497586091801047  0.6662169403425945
  0.0047618756668468  0.3523834402477684  0.3407738389963345
  0.9806149709467747  0.3230255464476239  0.0047914669315059
  0.0012255282462089  0.9982817802675044  0.6557025554994448
  0.9736431935807738  0.9929964590259165  0.3291704371113691
  0.9937468640590661  0.9796797462217691  0.0123154716148523
  0.8438318983954808  0.8455682021281595  0.8389924352916944
  0.8566871496410167  0.8225342710586470  0.5214917211808845
  0.8370275155478665  0.8285398767682625  0.1685889958141148
  0.8436109290280608  0.4957323174133608  0.8245925846863549
  0.8267742615987913  0.5230302123425363  0.5011540779275689
  0.8195180615763135  0.4822181256357383  0.1663047988642838
  0.8377122857714908  0.1518187194345333  0.8346325614958975
  0.8351311789465562  0.1688835929982483  0.4926433160220549
  0.8224728487349393  0.1475281769032486  0.1762897964871359
  0.4816697852867542  0.8443209276189114  0.8395878137301844
  0.4873179453120621  0.8379773497071665  0.4934324576324892
  0.5028866501876073  0.8273576218273685  0.1496642731247924
  0.4921593120882043  0.5106458064145333  0.8265846287967495
  0.4998468436681197  0.5177358948000519  0.4798172952424914
  0.5225373370051617  0.4860893810190412  0.1668032957168016
  0.4671641867906671  0.1704764206026358  0.8304890417307882
  0.4964929108529539  0.1756110434456353  0.5050470739760065
  0.4917730003066138  0.1601011436280194  0.1492217878369183
  0.1628857039237401  0.8620287600991414  0.8353300441382413
  0.1753544612033407  0.8410053344869535  0.5108896854252275
  0.1502315335879941  0.8402221847171892  0.1673314278893912
  0.1841812522187999  0.4904117653252392  0.8365149711161908
  0.1707206226385203  0.4862704722576762  0.4912729253811977
  0.1770392008096309  0.4902236701106855  0.1695374070272296
  0.1592632313844820  0.1668271568433537  0.8136799853510940
  0.1719909131033157  0.1701057058252222  0.4899811169210223
  0.1561911579932771  0.1538873214551131  0.1602845374362721
  0.6871998392013496  0.8744500077501846  0.8280787023649552
  0.8282281736403427  0.6597484295545416  0.8740317478814074
  0.8398836802478932  0.7936438015588960  0.6678027133643010
  0.6410434354707987  0.8273835324897263  0.5183262479489618
  0.8314710549760592  0.6738567447229460  0.5214456082989695
  0.8189660025264529  0.8446440011901852  0.3211928882973913
  0.6656233019186425  0.8015607234714974  0.1531368180697124
  0.8232869293578932  0.6784611503947443  0.1474976862908198
  0.8326322575037873  0.8388006610035852  0.9905598983606493
  0.6873212954311516  0.4991225656412373  0.8286242027784066
  0.8502373380136047  0.3320235705043991  0.8275597603804207
  0.8494982363698489  0.5052676031026656  0.6742312296660874
  0.6702130518720448  0.5275847399892960  0.4782709145246509
  0.8400343669436676  0.3607118153815295  0.4757970940360413
  0.8219317207457609  0.5281465560229506  0.3238272334363893
  0.6642776883486649  0.4398086870799929  0.1717579001845295
  0.8607757711902554  0.3466632566781878  0.2391451565250654
  0.8582145022161881  0.4580425464914959  0.9947765148496867
  0.7024223533365486  0.1656337076866131  0.7746615237606038
  0.8520519750576683  0.9942200286950637  0.8117218680142242
  0.8916586086836803  0.1817515262984460  0.6629249502046279
  0.6630224786990699  0.1932296865677805  0.4965649757407257
  0.8343266528803468  0.9819537408482968  0.4886841668137852
  0.7883302879752654  0.1497964630869756  0.3322230977485106
  0.6575814420309846  0.1836268307292958  0.1803111515277693
  0.7935152544255177  0.0025638221278719  0.1651557723235933
  0.8120014593971395  0.1622437934633685  0.0017290698695675
  0.3185832384003639  0.8685371946001377  0.8409869085266850
  0.5095876737836598  0.6784760490256001  0.8281221027244047
  0.4431082015473697  0.8573681606783545  0.6681351795506792
  0.3204591298696576  0.8353373770961878  0.4878669688142667
  0.4960619031787962  0.6646584191005221  0.4921095968628945
  0.4512958493962002  0.8374964640079702  0.3276171536311346
  0.3434291952049993  0.8283282190451273  0.1402483080599157
  0.5099049579413129  0.6542428591430215  0.1524282525463993
  0.5160687806329506  0.8470187943660962  0.9946937636206582
  0.3326537806812997  0.4956540591159583  0.8095230244298866
  0.4824380769110724  0.3385423895130434  0.8317125917898149
  0.5127075199585868  0.5405156584659987  0.6653872728368162
  0.3293783490759962  0.5125930331761308  0.4992234906694543
  0.5100360496986791  0.3470325241021961  0.4779031855462200
  0.5053769887234699  0.5266891217507352  0.3057862465178122
  0.3364692269270086  0.4712188470378086  0.1669901763690571
  0.4966772004389738  0.3252326085701781  0.1974130388775164
  0.5457330072873607  0.5099832221955528  0.9929416227652577
  0.3090675881348769  0.1618747588304673  0.8415898982222424
  0.4848574445233207  0.0122379471535771  0.8269823574639416
  0.4985753993691412  0.1593181557998951  0.6706316313834420
  0.3220527975463011  0.1789169403219142  0.5273997165671489
  0.4935699047411263  0.0161944610146939  0.5257860086125881
  0.4886301179334343  0.1442185553692557  0.2943445636028282
  0.3168367180585143  0.1589696573911828  0.1412645626987274
  0.5135569848298227  0.9902959392192123  0.1343600088255840
  0.5210810363244244  0.1900338492784073  0.9916250707611828
  0.0134112691047429  0.8570138323706120  0.8112632492904915
  0.1369166616048295  0.6737284059734551  0.8574617173619636
  0.1633958200889091  0.8472093187052456  0.6667703354109830
  0.0249048555804314  0.8465503781731591  0.5036181414323845
  0.1631320677645413  0.6773891372251009  0.5254509108745641
  0.1657137413852152  0.8437478971267051  0.3163891729524876
  0.9999372080943525  0.8704277013024176  0.1677048248252128
  0.1422551386081995  0.6915035656904053  0.1433039038892774
  0.1709990812880466  0.8499143108845786  0.0013757623951105
  0.0114825580923449  0.5092249304674882  0.8123097971372865
  0.1714727808269799  0.3131724098049269  0.8885155652269500
  0.1829207187377986  0.4699514107944136  0.6638157911648165
  0.0077304613918304  0.5151115090718976  0.4887035593251436
  0.1674839760559335  0.3483413364345438  0.4997138094691655
  0.1931230217984717  0.5313594376699062  0.3324372858097666
  0.0085446805507962  0.4905135861312233  0.1558921943417082
  0.1520861803384250  0.3165459173157957  0.1486170775114385
  0.1804263316609425  0.5162228335745871  0.0157841198390661
  0.9969431606048083  0.1713736785002989  0.8598974815652353
  0.1690585953472031  0.0233877391191200  0.8579505382015072
  0.1463379707438176  0.2060231165923471  0.6534411619567592
  0.0120609680833963  0.1601699182181448  0.4484899279479907
  0.1809212253119762  0.0183584352745567  0.5176682385813037
  0.1806631915517616  0.1676388285844163  0.3150915548359867
  0.9960408610084394  0.1822108130314428  0.1890580648294286
  0.1315450169293712  0.0026870497525048  0.1839558303143763
