Cl O  Li
 1.0000000000000000
    11.7780000000000005    0.0000000000000000    0.0000000000000000
     0.0000000000000000   11.7780000000000005    0.0000000000000000
     0.0000000000000000    0.0000000000000000   11.7780000000000005
 Cl  O   Li 
  27  27  80
Direct
  0.6593390243375131  0.6724320138526318  0.6990407205790381
  0.6883488448257498  0.6436177783797867  0.3342945047250417
  0.6820455903822991  0.6756920610021605  0.0112711733147913
  0.6446390553883327  0.3441091852977635  0.6518105628062166
  0.6866772832203931  0.3087973654137845  0.3135513798485320
  0.6875203513968594  0.3544508998675446  0.9646648526933054
  0.6581211827212874  0.0149291098167685  0.6511166833653572
  0.7018967204644371  0.9989908092058440  0.3283856389024636
  0.6581712631733757  0.9938763082441662  0.9911103070736148
  0.3198602791336804  0.6860540587623184  0.6740614250767851
  0.3513769966904425  0.6968698979678372  0.3449181596896034
  0.3522231012726540  0.6802075607137437  0.0005156840967708
  0.3459562027273242  0.3368610013864525  0.6581085541463758
  0.3131622717006680  0.3374367039157145  0.3325315877921690
  0.3128791977144091  0.3242163350006885  0.0351899307307791
  0.3176902814039208  0.0063319488835325  0.6627955500544397
  0.3405622505909922  0.9735655017569609  0.3564619265657361
  0.3253995536489707  0.9911400081912637  0.0073344410045190
  0.0353227326540654  0.6978981464093419  0.6635166356907749
  0.9871674908552656  0.6665573379587429  0.3625797578316887
  0.0141819967710862  0.6411337555678737  0.9841462839287854
  0.0336665858685412  0.3349039771556510  0.6759076812260071
  0.0146159636756764  0.3558955002648110  0.3297352807707298
  0.9688162465279971  0.3313888314381279  0.9902587926285009
  0.0150077042977053  0.0155118492163447  0.6758748880439605
  0.9720027519303804  0.9872746674733184  0.3313117219054464
  0.9883523760826360  0.0176038214398089  0.0048300556128706
  0.8477492963511706  0.8420661243887196  0.8120176861245734
  0.8274729075230852  0.8335282372585500  0.4942421570511311
  0.8472566698830930  0.8343841797953753  0.1510559503112361
  0.8319980427622328  0.5146970916064875  0.8132853652804281
  0.8611185503612289  0.4596665694162645  0.5153484562974542
  0.8320066256691387  0.4998538043061405  0.1618730951712250
  0.8385463149066041  0.1710104548357503  0.8113729964567837
  0.8357053727207127  0.1602423378071915  0.5172907843244496
  0.8118233532839019  0.1645479611536767  0.1768370492358804
  0.4918800734209514  0.8355971226769991  0.8349448976534997
  0.5088381565946130  0.8165780487398256  0.5010141110853881
  0.4977188792416388  0.8227506162800090  0.1837336173619143
  0.4782985544066088  0.4951009386361141  0.8411893672817260
  0.4819719171061541  0.4842406059650780  0.4684703596494192
  0.4853719628032347  0.5091801447947758  0.1554765218578765
  0.5123894152977971  0.1691389459120820  0.8490281523531549
  0.4885626989309562  0.1568525652828817  0.4780879116917099
  0.5022763218379136  0.1623027212895547  0.1709901463332063
  0.1557749673055698  0.8355732362851380  0.8401905112478335
  0.1729977137253225  0.8412726913248325  0.5063541366556880
  0.1527989455494334  0.8300765321783934  0.1681119474488230
  0.1577936406943484  0.4985718338005791  0.8352770399565985
  0.1651932197961078  0.5021124853263607  0.4895469426048506
  0.1518661313404956  0.5081082125959523  0.1677412731568194
  0.1650980588400578  0.1652819919998383  0.8496145430306397
  0.1647432548287484  0.1464717721711618  0.4894587653820143
  0.1577456553622241  0.1530463395892854  0.1821220348913749
  0.6945866748467467  0.8183692852169473  0.8330550387177786
  0.8532940161540968  0.6666297663571150  0.8195081347289296
  0.8472963455848284  0.8437279694956922  0.6501854379660543
  0.6532815568177722  0.8510467599619284  0.4885818918882530
  0.8246784425877980  0.6724018117368211  0.4877220222666639
  0.8663674027883573  0.8339929287937727  0.3082885194695664
  0.6719027806315241  0.8212779190082483  0.1490063359479153
  0.8235024224000340  0.6528174400207385  0.1783633289476887
  0.8676801017200588  0.8584300032007792  0.9994586147877771
  0.6474959893111482  0.5381424758971598  0.8390021834954494
  0.8195259454363127  0.3448393801513340  0.7949488753547421
  0.8531293215064851  0.3143228951324021  0.4899758855231018
  0.7683617798947907  0.4759464410027110  0.6344995683141602
  0.8006644407146024  0.1466879237747997  0.3437084151553644
  0.8343727549673240  0.4880611331297334  0.3569023268549985
  0.6660842984866235  0.5168968663552537  0.1668715352165590
  0.8016977903177587  0.3356987259953610  0.1509154659387650
  0.8476045205252463  0.4993199232053404  0.9840469947260913
  0.6748072039401921  0.1365076650198356  0.8565793290724123
  0.8243134261318329  0.0115956550280151  0.8340538947516715
  0.8487509053929387  0.1301951596602151  0.6648033429892986
  0.6814485115565918  0.1721969202592773  0.5207043116630382
  0.8405169827205536  0.0027559776330908  0.4981030886549007
  0.0007276282695743  0.1552465900416182  0.5168608697563600
  0.6599339574364940  0.1491189815491665  0.1834586404576423
  0.8404122064796442  0.0008700060874541  0.1473868385797339
  0.8322406313385575  0.2067726141771307  0.9649260038300851
  0.2988201937753044  0.8342862860741548  0.8434340403501089
  0.4815339459414877  0.6501943903111119  0.8106287126805561
  0.5385698319419733  0.8368824534715852  0.6646934251013276
  0.3407969040269699  0.8141109488292649  0.5518582394613815
  0.5039621747929770  0.6425154011526927  0.4691386118257904
  0.4730726167215031  0.8453126494113303  0.3512943283563452
  0.3403910377923812  0.8576459627519968  0.1728652888224163
  0.5003140345038206  0.6709804904502666  0.1129046862015331
  0.4868775747132717  0.8515245687699697  0.9746701562795776
  0.3180145088093775  0.5278411252810828  0.8081762684883917
  0.5207793282546580  0.3262069823644402  0.8430160689779499
  0.5134982297050706  0.4885301566038194  0.6201923888121598
  0.3146130258802443  0.4889627836943745  0.4984751090867846
  0.4576482828177828  0.3242941277158768  0.5009681601451129
  0.5139476987261583  0.5012008753508759  0.3249349257148507
  0.3281146064526722  0.5343380214402481  0.1871564563447877
  0.5149652590194405  0.3230755168768621  0.1332889888897975
  0.4705962456520676  0.5168107134029140  0.9980043125997169
  0.1636905734423484  0.1387972060437779  0.0129436987360597
  0.5020980645779740  0.0131869808767277  0.8356014090609900
  0.5076224202197036  0.2072168200949270  0.6560872795700089
  0.1575300705543253  0.1748584311083411  0.6694850353086611
  0.4901205775052180  0.0088130871099877  0.5166283620471089
  0.5399035832868403  0.1942670759026050  0.3262270175728955
  0.3182187172170848  0.1929742755498863  0.1700748117000076
  0.5139404113523702  0.0074097590578109  0.1777489223665298
  0.4675572083553688  0.1441947208961842  0.0035742763209061
  0.0098060104147202  0.8469005681597634  0.7998121447376589
  0.1829140278502216  0.6958233501210420  0.8073072896495677
  0.1468263050848567  0.8182048334817951  0.6383743459281273
  0.9962389712602745  0.8255267008391861  0.4845470349634066
  0.2041016420423972  0.6631044183162885  0.5054379113434706
  0.1952046290834075  0.8310995175166067  0.3544752670148628
  0.9939809867156222  0.8057799421438582  0.1768981822048808
  0.1704221534015487  0.6739926859201792  0.1356047138526146
  0.1473192959216234  0.8495405407707421  0.0152570353026030
  0.9977838239701823  0.4723419439854635  0.8307680988814246
  0.1718016127742313  0.3407976002213889  0.8264112210059631
  0.1499692987929135  0.4951583064619905  0.6576929714134029
  0.0170244179396094  0.5012917650961778  0.5178360013400315
  0.1342424882702235  0.1378372362461270  0.3419056403364116
  0.1524861957576929  0.4929228235816627  0.3279365140073604
  0.9848144130411081  0.5043427455888070  0.1590681748788224
  0.1465941819869998  0.3230717112483283  0.1595884933672946
  0.1861572937973326  0.5000503609713703  0.0015233319486106
  0.9916477948287564  0.1887580642312405  0.8257645880384964
  0.1800179040505901  0.9996713932222666  0.8224906139079506
  0.3441544805290296  0.1509337198067548  0.8221647873288015
  0.1502516339204410  0.3248174218819792  0.4859158871586865
  0.1618186191791708  0.9842410071451265  0.5334063256319738
  0.3179482544360205  0.1579171999865647  0.4837698770343127
  0.9827570760858425  0.1997652374841073  0.1879905772456588
  0.1350024601428003  0.9987097879563857  0.2100400246018052
