Cl O  Li
 1.0000000000000000
    11.7780000000000005    0.0000000000000000    0.0000000000000000
     0.0000000000000000   11.7780000000000005    0.0000000000000000
     0.0000000000000000    0.0000000000000000   11.7780000000000005
 Cl  O   Li 
  27  27  80
Direct
  0.6719833915312947  0.6714682736395871  0.6816644383935743
  0.6777663679716831  0.6738454959400940  0.3192945339183614
  0.6618447517777429  0.6655357845803125  0.0314618976365818
  0.6550095595331691  0.3375120622340369  0.6713410637144934
  0.6694657658291365  0.3310600643944887  0.3286030608266258
  0.6589005313111098  0.3557978239410752  0.0272905871678909
  0.6507973765128117  0.0026776473257505  0.6440252337487172
  0.7011760036453834  0.0045488010532052  0.3421701872777368
  0.6855799711181330  0.0032535488028473  0.0097367232319783
  0.3051770958355098  0.6690170844951308  0.6648071234052388
  0.3542360403031667  0.6646380206150251  0.3361909173272835
  0.3249577205762476  0.6678265300452004  0.9677315618584817
  0.3436356239639071  0.3305739560774106  0.6579694615506589
  0.3352989493211094  0.3353770641411652  0.3106526600127760
  0.3287854541438714  0.3596733302924213  0.0024667217965122
  0.3366034094718892  0.0218801850098397  0.6838184241437050
  0.3320527279390733  0.9957826473767671  0.3444044151103568
  0.3661205728747142  0.9832586967806126  0.0053612350359298
  0.0057541977146263  0.6812436378098009  0.6752564481946244
  0.0355368644357987  0.6748986429087084  0.3249198196870566
  0.9999079228102448  0.6633651593266989  0.0054533036025038
  0.9704165127143758  0.3372290287331881  0.6697523352578618
  0.9736276762617472  0.3088391208418616  0.3590312674091964
  0.9969566918837016  0.3256329344647156  0.9631462728911866
  0.9993039995780667  0.9948613003439010  0.6806009676454269
  0.0109985929511549  0.9788882752703589  0.3330844110949297
  0.0224316512086538  0.0003198609081788  0.9932070554010699
  0.8285812405540317  0.8180581698120393  0.8238066884014927
  0.8293107066702231  0.8312106649373109  0.4945498614394462
  0.8468195128752173  0.8275366949566164  0.1670259416001588
  0.8066557190376932  0.4876579943880454  0.8562745296938353
  0.8414001359014467  0.5096644057534320  0.4826168678322077
  0.8413719580561327  0.4984369513851140  0.1677045681628256
  0.8209006724646249  0.1485899837893459  0.8177623786399801
  0.8188372120911069  0.1709392154847015  0.5051995080371854
  0.8452460069327209  0.1761730883101544  0.1335269571595011
  0.4953237668385330  0.8600429973883965  0.8239303308434311
  0.4998930311745087  0.8139333543063195  0.4878626433681811
  0.4896390889734646  0.8229519651940460  0.1701532876972761
  0.5019166539046518  0.5027314817292774  0.8378369881849542
  0.4922459445191176  0.5025690542646220  0.5044207306916944
  0.5007963821263669  0.5023078828851374  0.1827562743535130
  0.4900594894702197  0.1760823402637872  0.8459050016474294
  0.4802003609868525  0.1686838239040386  0.4933484164142436
  0.5099962057089583  0.1488831285213258  0.1678002857932622
  0.1774055469377784  0.8341311204683126  0.8332655376368420
  0.1890760938751194  0.8411950957644240  0.5187459262011153
  0.1802641205196961  0.8354785558817374  0.1460363719120280
  0.1545723728947762  0.5030815185835670  0.8330142851827915
  0.1478792844390707  0.4874879151809126  0.5136847236490311
  0.1646671973134269  0.4982710421752044  0.1699191302075701
  0.1537790916511761  0.1553362700737047  0.8173018166165706
  0.1476386391624228  0.1641078997181288  0.4921286719837508
  0.1711981417023466  0.1754524075279185  0.1799801493089259
  0.6533293340500865  0.8531436357690771  0.8368835567810075
  0.8095820854385456  0.6450642965617552  0.8756004830383088
  0.8560546397352712  0.8145487325373167  0.6635802940280076
  0.6786812977507823  0.8117200169452253  0.4799066935204031
  0.8685396114215506  0.6602730456575766  0.4689204512244722
  0.8394532735085387  0.8812817244106137  0.3273898345471324
  0.6500901368866738  0.8008530851523702  0.1532566917399519
  0.8235018600528872  0.6527810586076428  0.1826047981922448
  0.8093346386130286  0.8115200190201514  0.9865687323184836
  0.6647808346769795  0.4696766019928912  0.8067307521995133
  0.8301081882751038  0.3299506629487711  0.8261007536699950
  0.8346976143452266  0.5279505723145697  0.6435062512787727
  0.6753712916053952  0.5265560523693917  0.4879818324150270
  0.8156297150036727  0.3395407861258316  0.5049947733191490
  0.8623390279776927  0.4571486752866719  0.3199634743467016
  0.6568127796916312  0.4960350734699572  0.2116112988768667
  0.8617232448925958  0.3431540684770348  0.1572996255040801
  0.8000888236047521  0.5034403002864024  0.0104108470579590
  0.6759010836797921  0.1573427067473308  0.8081736522095625
  0.8587387414430784  0.9706763893126686  0.8581412309750739
  0.8448078738264149  0.1102646526596315  0.6709080722552490
  0.6544541806796937  0.1489262960896680  0.4917976227867202
  0.8092143159747046  0.0096131241447769  0.5196972928491553
  0.8282061837164028  0.1669574450536312  0.3481626757145337
  0.6808057696370711  0.1993829082431253  0.1637762992009831
  0.8389693109181871  0.0047824622803472  0.1610497789049178
  0.8170869468488383  0.1553502172974270  0.9685453312498465
  0.3384470745548755  0.8270019636622078  0.8365948148373579
  0.4768163475121058  0.6689526317225156  0.8569317698387046
  0.5185654690318271  0.8264107147355311  0.6503714836975177
  0.3430367232947529  0.8061684146226104  0.5385785139655035
  0.4739161751714809  0.6675617959496416  0.5267836160915501
  0.4916180967818605  0.8202352322458322  0.3416649293617601
  0.3337563135036877  0.8718485429251625  0.1535694415316924
  0.4887863447840239  0.6515281566264141  0.2055576369856594
  0.4708318751864759  0.8120875434966067  0.0148458908734818
  0.3457794478761443  0.4605346320610955  0.8645380067154721
  0.5211885997122734  0.3348186691246501  0.8391000520040762
  0.5039743248645493  0.4932487461020669  0.6576708411669854
  0.3457739418603934  0.4853404070963713  0.5068043092015608
  0.4822719589277674  0.3312177145807718  0.5139965827617530
  0.4578593781937709  0.5095071199358382  0.3427821647342999
  0.3236319246144326  0.4923868117245710  0.1745517036033301
  0.4586483173771557  0.3268181448405347  0.1421147526787672
  0.5493734490022839  0.4994663739035070  0.9959155666481445
  0.2998283051739591  0.1438675631475898  0.8941382664221866
  0.4535767505601283  0.0458616922808872  0.8157555168695497
  0.4838325905099047  0.1897344051049399  0.6491376098589579
  0.3237334620225472  0.1245139380254262  0.4984318049709716
  0.4952030798315197  0.9943630508319344  0.4982067870625582
  0.5166080399469263  0.1850342311959426  0.3303322938984334
  0.3480828247889317  0.1521529427760011  0.1492737978387560
  0.5263093967877804  0.9992499595033800  0.1622786426739982
  0.5485691658485343  0.1478530784790790  0.0030012762835448
  0.9981668252992806  0.8026366294016044  0.8279895599850577
  0.1602153710303175  0.6889008863030853  0.8383558491986689
  0.1570007889961448  0.8468761704280082  0.6669967768015213
  0.9956795688733953  0.8691658177212932  0.5022629797984398
  0.1821764691006354  0.6693851373568410  0.4921193198540560
  0.2303225890305096  0.8340719307989892  0.3334997914008530
  0.9984363007740394  0.8538497822891467  0.1394172098148621
  0.1482496348477949  0.6687316623550956  0.1582591398408693
  0.1727510810565965  0.8665632536290934  0.9945160979941864
  0.9600831685030986  0.5089044541235601  0.8561958260569236
  0.1428082439323726  0.3257001200025012  0.8358664823126445
  0.1430698302873089  0.5046653887910066  0.6695095037690775
  0.0016273402260430  0.4666106823839962  0.5168150555451311
  0.1974025054664988  0.3022047362305604  0.4625207605345587
  0.1757373658641511  0.4660903234101140  0.3529314521506643
  0.9973420611143422  0.5401927125120645  0.1438254636755300
  0.1836602998601279  0.3392702423739474  0.1842189919717249
  0.1390823210493805  0.4981958202835470  0.9956736843524476
  0.9935985128448768  0.1695393818294696  0.8138471965868989
  0.1612964630531387  0.9919611292684450  0.8208382981451288
  0.1516575347144026  0.1505004700414283  0.6637341385857569
  0.9780207936397761  0.1984203068938287  0.5309932890164917
  0.1690112210712346  0.9958196222588507  0.5100769068281691
  0.1399471400123340  0.1459332299759494  0.3292668798506093
  0.0267032288557225  0.1975412876733408  0.1094110535095014
  0.1528432916432557  0.0237559702049324  0.1539841943137617
