Cl O  Li
 1.0000000000000000
    11.7780000000000005    0.0000000000000000    0.0000000000000000
     0.0000000000000000   11.7780000000000005    0.0000000000000000
     0.0000000000000000    0.0000000000000000   11.7780000000000005
 Cl  O   Li 
  27  27  80
Direct
  0.6561335657808173  0.6551181495617809  0.6814157680452436
  0.6824659646538861  0.6739536221649037  0.3405765511259873
  0.6761048160742298  0.6476314256151384  0.0001080505063011
  0.6781371026820986  0.3306693496407960  0.6687038756362842
  0.6815752856353372  0.3495426963449120  0.3581135351762956
  0.6801312520338099  0.3463296527563168  0.0028805755716315
  0.6556776595795502  0.0068766221136375  0.6573139938033108
  0.6468369010976638  0.9787152328535147  0.3386336360605477
  0.6757266418600358  0.0114793375195711  0.9898486614954646
  0.3198161642970940  0.6855365789178526  0.6776933775142683
  0.3086317054341260  0.6486495527041598  0.3219124532631153
  0.3371132520508382  0.6801625456032081  0.9935911087515551
  0.3473493604288063  0.3208391884682365  0.6571464651770038
  0.3383782591696372  0.3250830715645723  0.3365325849839059
  0.3312544666803485  0.3123524748962233  0.0063428299477061
  0.3298678413901076  0.0059703688639546  0.6285428348066354
  0.3430190814676712  0.9720291913894760  0.3049707869231821
  0.3365677313946819  0.9932162710477235  0.9894239638519957
  0.0004128577588716  0.6857828921518911  0.6804277621012133
  0.9906342087748752  0.6828527201225052  0.3196597843262705
  0.9969954187152309  0.6416004355534943  0.9816474257309250
  0.0326642724709884  0.3434701277672657  0.6740289620903183
  0.9928447355629014  0.3418679986399459  0.3403150558632233
  0.9985676088819044  0.3104903282236021  0.0064794270882390
  0.9989290086939645  0.0122586323192080  0.6950957880619559
  0.0114633347834373  0.0019438296349500  0.3254432870769878
  0.9997629154649720  0.0157395008113766  0.0030159995841531
  0.8230010248582427  0.8327497884616492  0.8446553700238896
  0.8180472300987137  0.8348305765906191  0.5206622131490073
  0.8438391892345728  0.8329067099105535  0.1408864771089673
  0.8403380109834768  0.4825879961968813  0.8395757466102854
  0.8406541210642420  0.5036250249068073  0.5181187577553111
  0.8095185736420086  0.4997335268185374  0.1963166712660591
  0.8386353565832910  0.1692352147608635  0.8268540972175320
  0.8316993961533911  0.1532326581111128  0.5163610027122049
  0.8339473080545687  0.1460709307927159  0.1888709590396798
  0.5046333561791052  0.8328591800392909  0.8314308918397554
  0.4919892768317853  0.8338302630819688  0.4862923672979634
  0.5093503112905202  0.8188036983308503  0.1575431160416124
  0.4952941818155209  0.5129471953982193  0.8489175120401056
  0.4875780675361922  0.5137685229095512  0.5115297977739561
  0.4847728334818626  0.4932989781906708  0.1858641683719936
  0.5087432325685594  0.1652715413080337  0.8260630123074209
  0.4926743709386891  0.1782948980969682  0.4826984774581188
  0.5124620603834606  0.1708646512971838  0.1679563379666894
  0.1597230175290543  0.8648133424503904  0.8041561950504719
  0.1735397466537612  0.8355231200129506  0.4869802548981527
  0.1624218053193148  0.8407135115081344  0.1802644491396718
  0.1860523091469104  0.4835528444864294  0.8299810283391974
  0.1491191093231879  0.5040609718009770  0.4999477317000258
  0.1515657134949693  0.5107599306411229  0.1618777573056678
  0.1719662811966747  0.1588410614638654  0.8080121874342295
  0.1756924368707740  0.1721797388680712  0.4980131768717377
  0.1556802659492708  0.1744823263153648  0.1603056987165765
  0.6765723820735579  0.8384086771205894  0.8144694483770692
  0.8592333615078922  0.6913090696370677  0.8630904824081747
  0.8389432076404293  0.8092095468555015  0.6688009596493059
  0.6687030710030388  0.8440572824854066  0.4928144858675175
  0.8545028842695592  0.6775566212219836  0.5317699926455601
  0.8837297875258618  0.8463916712222033  0.3939306939470714
  0.6581579982191591  0.8194802905016682  0.1414715014038667
  0.8186878712255098  0.6708506179205092  0.1764894883038970
  0.8168619792374847  0.8683035086699840  0.9969562285078455
  0.6675952687310136  0.4731623449976779  0.8322044870527748
  0.8359189475183565  0.3255183706921831  0.8222960878255179
  0.8715172826484390  0.5212748013091918  0.6787042577149112
  0.6616902692650842  0.5029163682913218  0.5153289486421664
  0.8339822874487519  0.3294647872390285  0.5077163960414489
  0.8409904738499738  0.5258034182935937  0.3592804461468244
  0.6609871591507598  0.5011330669545473  0.2108579576510030
  0.8438811321192643  0.3279429609223129  0.1883880895553965
  0.8185074682388437  0.5000559121378423  0.0307334777108707
  0.6792009377989354  0.2075682583611704  0.8319011703615492
  0.8474618237154705  0.9964036165223632  0.8383613462539041
  0.8040193594398483  0.1560898349463878  0.6652483649275940
  0.6404793962049015  0.1806368576054226  0.4940507078598534
  0.8308153567420714  0.9952343181778172  0.5341553525134639
  0.8429766880613379  0.0056745672769478  0.1958996715437385
  0.6607776876397610  0.1343123179674157  0.1746165927549384
  0.0054869048946123  0.8153787644709253  0.1461673130099437
  0.8162793132177139  0.1489413261143343  0.0059939494579376
  0.3298671936235487  0.8228941822089462  0.8105136999432342
  0.5146730900761882  0.6737381183278248  0.8376606247787656
  0.4981133833362778  0.8265706622850562  0.6542186008159838
  0.3314445861653987  0.8367794632540237  0.4975791732772448
  0.4820378416137685  0.6708548688885523  0.5031954307995247
  0.5216996163681105  0.8209533926275280  0.3433788702308017
  0.3287786219212422  0.8230023592242898  0.1631683512035451
  0.4970551756914219  0.6485621447041122  0.1736806308053783
  0.4845448196531140  0.8122158314555634  0.0001393187049597
  0.3368837605046271  0.5355345319107495  0.8481730663222384
  0.5034942586852011  0.3404045725270602  0.8302339811804654
  0.4829970624313356  0.5032966072614223  0.6743644241970318
  0.2990591934103868  0.5282853763496000  0.4948315499612513
  0.5013674386451361  0.3368551356673230  0.5172312770841470
  0.5159609714516001  0.4936669905669712  0.3420874261393158
  0.3292433539418750  0.4825645146591196  0.1850316466448149
  0.4755181116834005  0.3196072174439437  0.1991664190286112
  0.5014928624451119  0.5032347860404530  0.0136251051045197
  0.3461548384087024  0.1525402361450109  0.8693621582318767
  0.5054775579470500  0.0126587610121077  0.8461635325147524
  0.4898260604081897  0.1706183178204401  0.6461022882594573
  0.3309278101502957  0.1611664725610093  0.4858542746770673
  0.4989518766614217  0.0110142537819395  0.4943722834709595
  0.5215010354323841  0.1556967722226907  0.3286148533631056
  0.3257797461511980  0.1744932371333420  0.1611207813534261
  0.4822780820363170  0.9879207496968782  0.2021607604327428
  0.5073033689642553  0.1391182600098658  0.0094538338560697
  0.0223341038340530  0.8622801703508175  0.8304103356261381
  0.1703201849141666  0.6419646423012610  0.8424450285831309
  0.1535862593339574  0.8568943962672920  0.6456334672124210
  0.1763801625293236  0.9960992678428560  0.4702312788668006
  0.1285244343235538  0.6681925888166997  0.4820210755791023
  0.1581246737875633  0.8150965303140103  0.3280355881177694
  0.1472496145486638  0.0071334043787388  0.1944850505925282
  0.1705941496831903  0.6768378837394246  0.1487597861137175
  0.1579855962830874  0.8850457641232871  0.0146522667658016
  0.9911717512749363  0.4658551738440929  0.8343372584481002
  0.1694017126616980  0.3126946980663957  0.8090837552643637
  0.1755608390457834  0.4925497956798413  0.6669187119706526
  0.9901463867863048  0.4924447765264724  0.5041016562154881
  0.1633724432299760  0.3329846899922188  0.5235076897008113
  0.1524707344699874  0.5000133619720015  0.3126404239519065
  0.9976551246745990  0.5321172799144470  0.1563313371155242
  0.1306228639699025  0.3533856524266711  0.1596164447338020
  0.1627920443931616  0.4925330752055386  0.9996476407578490
  0.0142467560579959  0.1631772715375557  0.8335120038520046
  0.1373353550583188  0.0146601496611826  0.8345641386853706
  0.1844215568347673  0.1659338320077922  0.6520620644850275
  0.8396174923857932  0.1803567390540890  0.3479346934106792
  0.0039616419890563  0.1724180562336479  0.4861829352349117
  0.1786329731651032  0.1985007815836533  0.3410110405453995
  0.1743400622373373  0.1688085187828637  0.0070795859680239
  0.0030155789297176  0.1447175845094407  0.1814844567253291
