Cl O  Li
 1.0000000000000000
    11.7780000000000005    0.0000000000000000    0.0000000000000000
     0.0000000000000000   11.7780000000000005    0.0000000000000000
     0.0000000000000000    0.0000000000000000   11.7780000000000005
 Cl  O   Li 
  27  27  80
Direct
  0.6545693691711829  0.6397117901638361  0.6719128421095887
  0.6906672942598512  0.6524799977780138  0.3380092010088379
  0.6643387415007265  0.6804125015079053  0.9811434107355568
  0.6669163260949970  0.3433564437199356  0.6442541412070810
  0.6781333352275519  0.3371220549587828  0.3313665776166153
  0.6768536723903568  0.3511803301605086  0.0129068906613739
  0.6653943175939366  0.9847964655578209  0.6701756536547290
  0.6582524483691123  0.9943747309378624  0.3373755031298453
  0.6459354101632395  0.9934766373960349  0.9857040896342881
  0.3440895538803143  0.6713249034816512  0.6786698975129900
  0.3381076726209202  0.6615593772660515  0.3283031276177262
  0.3720537981715943  0.6643728298585977  0.9907353279223449
  0.3109279343606370  0.3206259710405837  0.6571919422034724
  0.3131928703766920  0.3294290780912313  0.3656454527515373
  0.3653607906867087  0.3191601360458068  0.0223245535831298
  0.3294495843086561  0.9907826167627940  0.6361551564060062
  0.3209586602540098  0.0073928385403650  0.3610299945628268
  0.3212462281207713  0.0059929302401586  0.0117421152962191
  0.9977260480569965  0.6730803913418012  0.6729244915330205
  0.0177565984057329  0.6695907109471265  0.3216531966090105
  0.9635270598083502  0.6616192147019339  0.0019891092727145
  0.0110934577668571  0.3332771960627570  0.6447296423467562
  0.0015289805155284  0.3423788020408484  0.3095302049729515
  0.9615593600810165  0.3411795837131921  0.9964728753046955
  0.0075570439248435  0.0058128169772074  0.6811606409029521
  0.0258982320558352  0.9972253855103386  0.3214695547895497
  0.0104987852927028  0.9765412285822745  0.0405397315082863
  0.8288676418441318  0.8253984467095906  0.8503686829848940
  0.8263760887459712  0.8439764725909430  0.4903417703960888
  0.8178431408358133  0.8407161015581347  0.1742361227834910
  0.8348529238779604  0.4909166941976867  0.8333459446115679
  0.8250574789444194  0.5025947916639806  0.5048920647847431
  0.8402808027878171  0.5097796968795646  0.1596787738121557
  0.8246892236556593  0.1445804189243489  0.8299770726801365
  0.8378225286966222  0.1646608482470009  0.4922891186139162
  0.8292290146132030  0.1707243885782320  0.1743628016311747
  0.4736631488596199  0.8337602223065476  0.8308777920803491
  0.5095355297295457  0.8102192519630209  0.5063284871292029
  0.4974109591624993  0.8447266672370206  0.1522823829364287
  0.4983950380217660  0.4832738180249287  0.8287513364089737
  0.4962511736241188  0.4911241009527789  0.5003528811083485
  0.5141152393012842  0.5192161981686304  0.1839956976438305
  0.5198925072988718  0.1670883230625884  0.8367545732155545
  0.5025511892347747  0.1593822896503333  0.5009045353041097
  0.4999227549656270  0.1623424208830706  0.1770228145200709
  0.1583471489250805  0.8400292260931937  0.8404648990943695
  0.1563034251889052  0.8321740039453317  0.5118103735759116
  0.1827788792579757  0.8380433357651093  0.1530321322429971
  0.1773535914143547  0.5213013992072831  0.8307964973772015
  0.1758491738239107  0.5203331906287106  0.4992135002165748
  0.1809499103787955  0.5218442680690887  0.1442274361400094
  0.1626377724271851  0.1531988315348776  0.8336715282782574
  0.1460587946321460  0.1718860162027645  0.4838420807436384
  0.1693713462928246  0.1884516135698203  0.1610633748318999
  0.6421048021315104  0.8610549998591582  0.8155788414911946
  0.8125769606532329  0.6635686276756678  0.8365275310366443
  0.8395671259815001  0.8035210218602539  0.6752702161845989
  0.6613053316760086  0.8278982588313780  0.5239153492045500
  0.8521742016641402  0.6690584492627238  0.4781672813185938
  0.7809962356633651  0.8393535246013948  0.3313221246365077
  0.6585710685452932  0.8755198700328517  0.1509970723845477
  0.8063047180337920  0.6699615168167125  0.1645384501149407
  0.8245281726949417  0.8248714076430694  0.9983173358627285
  0.6721578506629273  0.4847368392837151  0.8082037763051503
  0.8595430320970546  0.3213869955338188  0.8415261836303805
  0.8265721191008717  0.4904713546884122  0.6637168947517218
  0.6506845106901422  0.4900227763463432  0.5298252474050814
  0.8396187043937559  0.3499404644812787  0.5235250293673759
  0.8497646720065060  0.5036931203500811  0.3305934884712198
  0.6772779190010555  0.5202420984563590  0.2031794055005009
  0.8404327850167097  0.3416581212586125  0.1507549898758471
  0.8127018176574695  0.5259890833673159  0.9903769447477635
  0.6629421972850518  0.1500431557721589  0.8133055047525782
  0.8347987543994688  0.9786923170952568  0.8499864197442968
  0.8241229137415021  0.1633068744398718  0.6761295594958588
  0.6624302592764358  0.1784971014606485  0.4831066227867765
  0.8514429541899117  0.0064756795333812  0.4861876029681670
  0.8575051585026150  0.2170492723422234  0.3383079428487412
  0.6591236539054829  0.1615425303962988  0.1970181536323940
  0.8571969025913770  0.9727873986001473  0.2198087066600881
  0.8203793088557212  0.1409149205156833  0.9859906985029018
  0.3263550212722329  0.8807414352936844  0.8217450123366086
  0.4973484496895611  0.6584754011643260  0.8354844649351038
  0.4638966105087717  0.8541889982176245  0.6781890927846133
  0.3314601707368005  0.8085651800547557  0.4901205581162092
  0.4878215039947026  0.6681389446323018  0.5240744568655907
  0.4800572525629624  0.8067470612654379  0.3443215444268186
  0.3408483324464050  0.8320618593598146  0.1376481825356861
  0.5339257220318486  0.6809639937620270  0.1675121743240634
  0.4843966002559226  0.8512899999538874  0.9804739452620566
  0.3448876427663440  0.4995076172148701  0.8575439931583240
  0.4868317976634551  0.3265723668381706  0.8155449147176698
  0.4961327538000618  0.4829364126185384  0.6731300764446656
  0.3322671664130157  0.5010047676742311  0.4967845780475821
  0.5042251394793175  0.3354399469041383  0.4459229194890871
  0.5279003594421852  0.5397644870098327  0.3349841109358614
  0.3548797658213446  0.5111144198742702  0.1506915188744230
  0.5199903200492724  0.3547219128507186  0.2016962225075674
  0.5231576556100522  0.5014684065887955  0.9902519586962827
  0.1786854804303648  0.1763612126887584  0.9894188193236902
  0.4849146920468486  0.0131338562814484  0.8145377186893309
  0.4928995484773194  0.1711728252213664  0.6658704756477531
  0.3267725270621776  0.1697272329315566  0.5130401179026582
  0.5063046725605795  0.9787789255084582  0.5032520413137251
  0.5032345424690513  0.1289708845128853  0.3537993813194272
  0.3515471688172143  0.1869155363888080  0.1956217106302441
  0.4770632755275202  0.9974288205834577  0.1386001261008176
  0.5103020804812367  0.1504677971156045  0.9895539623953006
  0.0065320539262539  0.8294124131629109  0.8750435686898532
  0.1796563408032880  0.6926257351227072  0.8254513706452501
  0.1727700154859674  0.8593365561490978  0.6795107794773200
  0.0090006986082373  0.8316975716412279  0.4895187424975397
  0.1276179738050602  0.6680157475298725  0.5319382619203588
  0.1766700964811433  0.8100173107382701  0.3350076936871481
  0.0043324487101419  0.8168455799777453  0.1681011661891363
  0.1431771544879183  0.6792831205123854  0.1754536202737325
  0.1930029634691934  0.8282197939570740  0.9953187450720152
  0.0126294299388374  0.5127907587579991  0.8328491886316772
  0.2312333158272026  0.2918528080161166  0.8194158057322832
  0.1645660722596385  0.4944795722135220  0.6749366164067423
  0.0168308033547424  0.4971732284780734  0.5203026741344958
  0.1385507956025832  0.3163382624879943  0.5038249098642917
  0.1805450360367501  0.5148594012639888  0.3294646135433239
  0.0175805134410701  0.5053079618961200  0.1466294557541010
  0.1700295176021223  0.3529422147154282  0.1704033690250355
  0.1849803543939590  0.5287086502942251  0.0004467855566854
  0.0114972605107082  0.1336222026534448  0.8375270348370961
  0.1934533231692997  0.0136512117439811  0.8703660463677140
  0.1553703174607454  0.1494778073864874  0.6763844961222135
  0.9948427695188355  0.1423006450055532  0.5215144024538217
  0.1657884684844819  0.0068507332080875  0.4989349605962287
  0.1602913494022855  0.1748172813382187  0.3163391221864784
  0.9801576881302817  0.1526535740338859  0.1683757787247189
  0.1514081622107882  0.0041245298368717  0.1660533534265576
