Cl O  Li
 1.0000000000000000
    11.7780000000000005    0.0000000000000000    0.0000000000000000
     0.0000000000000000   11.7780000000000005    0.0000000000000000
     0.0000000000000000    0.0000000000000000   11.7780000000000005
 Cl  O   Li 
  27  27  80
Direct
  0.6688116736943239  0.6637012994241865  0.6574633712178702
  0.6878852814786788  0.6590278661284508  0.3358798047287371
  0.6505443328488055  0.6802309255045161  0.9962259164786070
  0.6776293150071379  0.3268712311944685  0.6662936034931738
  0.6686750354357965  0.3294043425659265  0.3338709389305149
  0.6407256897753721  0.3325153426787830  0.0162604068800899
  0.6798271464562271  0.9977415981620594  0.6617557963207169
  0.6665162319218836  0.9984669363478991  0.3370493674936166
  0.6620984639898813  0.9887304440226289  0.0070841869240746
  0.3100889176157239  0.6798720628308610  0.6735103707263760
  0.3311739620218316  0.6462001449616700  0.3475596228249530
  0.3269668194350110  0.7075116141344699  0.0083479630333778
  0.3361267446461124  0.3200823947442690  0.6431467586153551
  0.3286139885808824  0.3559855850111547  0.3447293687872842
  0.3351817746928419  0.3305499379681250  0.0066463840268932
  0.3322191536073938  0.9745842610790765  0.6393431948374619
  0.3208831173696327  0.9927324331204540  0.3053359718153948
  0.3350450352207897  0.0164727144022547  0.9854217187261981
  0.9789125318742625  0.6697905075053160  0.6745755013763307
  0.9886128892315591  0.6657792130890513  0.3380256529114711
  0.0255462168373567  0.6499222116093659  0.9959999572844127
  0.9940908460631662  0.3190108269141348  0.6858351821309561
  0.9973054299950926  0.3252086168647073  0.3368876282809302
  0.0119559757475114  0.3482300784279602  0.9971019103635793
  0.0015541531538150  0.0015840372641109  0.6881522431123011
  0.9851209707528167  0.9989581687578180  0.3179970145494772
  0.0109754621346570  0.9928984112820776  0.0301178934260789
  0.8327013499002807  0.8413091733884236  0.8492012605302359
  0.8417347784480433  0.8337341102773049  0.4936447873917574
  0.8435234238589292  0.8166914530822914  0.1701811391934025
  0.8189269179076023  0.5039410540606819  0.8432431037210631
  0.8481071010008412  0.4912864080213692  0.4980958343307257
  0.8338625524280088  0.4980237875155425  0.1668836025542749
  0.8457245346262231  0.1763195340193961  0.8528685909037010
  0.8358188074360218  0.1820538267543386  0.5070722189358912
  0.8245498555225212  0.1548303844940317  0.1582843699067025
  0.5119601835783502  0.8321815757771543  0.8175800501304340
  0.5139749804891276  0.8432573313144495  0.4896340192858220
  0.5061566000643056  0.8490562185209419  0.1682299144975740
  0.4869376496582876  0.4996477382788167  0.8175988353606436
  0.4993515694501324  0.5030813463807325  0.5086994085319601
  0.4902423927003834  0.5151077398286888  0.1656706394299461
  0.5141524280408685  0.1726608067955420  0.8221741725081093
  0.4970894876554779  0.1839813371212983  0.4937330051000038
  0.4999736277737690  0.1522189237329989  0.1728254842286542
  0.1554068179483608  0.8423751542319867  0.8348836762778825
  0.1588138676213600  0.8069565743220117  0.4889633784702645
  0.1783166409937206  0.8336880378808001  0.1701864427821039
  0.1682003289437473  0.4946292478342130  0.8234669526181231
  0.1544606536754973  0.4948933341632127  0.5000351259519762
  0.1899922486073033  0.5043775272651808  0.1718413648839776
  0.1834318510826567  0.1635758706849909  0.8344665146139222
  0.1560857076661923  0.1658310294745467  0.4934566921772039
  0.1574164833334291  0.1722272687832633  0.1564616863874146
  0.6707256214489555  0.8383493660389658  0.8364378301944306
  0.8153504367940292  0.6671628829443670  0.8438756477658725
  0.8407695253043957  0.8324459455040236  0.6691379869389096
  0.6667819781526907  0.8191419539747788  0.4863259969255215
  0.8160147214002269  0.6564772448171962  0.5160460124748208
  0.8182149414885023  0.8243571225408421  0.3304425534464806
  0.6698651040608076  0.8148309055833627  0.1464932979039878
  0.8370943407614037  0.6456439563999962  0.1667844740280514
  0.8295142574594533  0.8279443727734579  0.9961738035324231
  0.5259445729069464  0.3345192490142881  0.8203471469286058
  0.7974002586499342  0.3273267325416364  0.8530052696476383
  0.8261715391028394  0.4950436160048879  0.6789101932471485
  0.6643744727655531  0.5107156396465847  0.5335491507224244
  0.8557364145612714  0.3318641551026989  0.5090340609304749
  0.8089105036066413  0.4596934564377012  0.3460310556874835
  0.6569922821473604  0.5046280914672627  0.1566926455297358
  0.8106171255770008  0.3339164415030753  0.1611470122723186
  0.8264916167537777  0.4868063735288882  0.0008528859661599
  0.6745125052379559  0.1519282283683200  0.8485572186290052
  0.8620223412492701  0.0041827659963040  0.8022872533235894
  0.8254200489236435  0.1849486145354424  0.6734806949208944
  0.6632356991549283  0.1941446527322050  0.4819938961209393
  0.8308463893879228  0.9852816463009734  0.5129056806824672
  0.8299126338932042  0.1772127636187708  0.3511101932761683
  0.6642127335528665  0.1426645997796726  0.1967758430374338
  0.8345181731564808  0.9857902822183415  0.1685458423939943
  0.8384263917190534  0.1736407966284053  0.0212807305546622
  0.3191034597197521  0.8372449240559652  0.8189079715762707
  0.6672616088041792  0.5206554150665405  0.8192841620053778
  0.5263070387820860  0.8413154891123733  0.6655688336845345
  0.3182293594765713  0.8403541225680796  0.5045324881999090
  0.4700614279835127  0.6708957591965151  0.5069886570497872
  0.5104260699397196  0.8211067109188778  0.3308348165833315
  0.3429295890481490  0.8258638275569475  0.1653713206729512
  0.5002624506882384  0.6942126427960568  0.1571365174429001
  0.5002703048577656  0.8636727470402483  0.9796589609525648
  0.3317849880712611  0.4854301125035904  0.8351531471664037
  0.3427602385783949  0.1799244156480380  0.8080722945198843
  0.4939481842132858  0.6561552643519908  0.8225042095698915
  0.4180600241645546  0.4904211943256689  0.6130056543173318
  0.4949382549132228  0.3265527122318124  0.5241443090239268
  0.4872968362152223  0.4913821155304534  0.3405083194621513
  0.3381573106240591  0.4801725961987361  0.1543465261454106
  0.5072616493284552  0.3351331495278230  0.2025067552406468
  0.4998731834717226  0.4754483537135329  0.9909998895990826
  0.1639147964819419  0.1902940246652635  0.9986952561280767
  0.5077801864588904  0.9958315045868241  0.8095111459889403
  0.5526893561656032  0.1787380514380358  0.6360470751876821
  0.3354968321529487  0.1469221770659185  0.5315760942692888
  0.5231313227414499  0.0120474440177238  0.5091407804710609
  0.4911601159727682  0.1429095263884210  0.3334546072174583
  0.3332382118608435  0.1808885352002071  0.1566854796121774
  0.5016133678469176  0.0110105861007628  0.1435350290001075
  0.4822527589915402  0.1735731657511105  0.9905056525707913
  0.9891797444335816  0.8602792599795769  0.8567331661943648
  0.1496950857081040  0.6585908666136226  0.8134068140744332
  0.1504056147737989  0.8569343554108265  0.6830054139182063
  0.9920434843333575  0.8389553516548584  0.4372709997853330
  0.2100893680402006  0.6462875529617176  0.5021373713482112
  0.1569488363632810  0.7600586803085188  0.3434408396453135
  0.0153204600726411  0.8394281402720682  0.1688836324117789
  0.2216093294952921  0.6620226933575014  0.1781195588586790
  0.1652952679898728  0.8611900197614533  0.0170407960509641
  0.9891439249671424  0.5235293123761182  0.8482835372578511
  0.1611301897439737  0.3369170176603367  0.8450000085705609
  0.1672983342531218  0.5155334439141454  0.6548298357870708
  0.9829023766142766  0.5321487371218953  0.4764208770164691
  0.1826757658094335  0.3236323579143354  0.4842411197701481
  0.1854521742518901  0.5136219657695197  0.3535347835062981
  0.0117807144079069  0.5318121009382938  0.2008859016112325
  0.1776367290192883  0.3450222574572464  0.1445505549015405
  0.1634741735229248  0.5273183014064351  0.0104741485911589
  0.9900537447284068  0.1940137026737733  0.8526553137641687
  0.1904101592513475  0.0276400238986085  0.8497620644286424
  0.1365725599075360  0.1741229171326049  0.6714801893598237
  0.9954852442358222  0.1846840423815234  0.4934481902411178
  0.1681267365898397  0.0036116579284850  0.4607605941436532
  0.1395570532357011  0.1815738722195706  0.3252284172583707
  0.0012005890081848  0.1387306122536769  0.1637628454576243
  0.1559985931853667  0.9902932403090287  0.1971924783910650
