Cl O  Li
 1.0000000000000000
    11.7780000000000005    0.0000000000000000    0.0000000000000000
     0.0000000000000000   11.7780000000000005    0.0000000000000000
     0.0000000000000000    0.0000000000000000   11.7780000000000005
 Cl  O   Li 
  27  27  80
Direct
  0.6584805388738417  0.6384827859317036  0.6744617558247982
  0.6918213670605919  0.6763580205164763  0.3288914139006499
  0.6655056481764163  0.6486005756991394  0.0143817757926265
  0.6707264846998704  0.3279937197246652  0.6614356156639306
  0.6590113025980771  0.3526312981243700  0.3416926980947438
  0.6555625529528459  0.3486789909503792  0.9996348213111719
  0.6665557587392855  0.9969916318965689  0.6595732463215549
  0.6467898099596486  0.0216239731289479  0.3339124751687844
  0.6528721355210891  0.0202731192287219  0.9990555993978760
  0.3587649438908259  0.6578310062516411  0.6949749843009975
  0.3425307398467851  0.6597850750475174  0.3234740004692611
  0.3587341749792760  0.6604272546198913  0.9729341756892345
  0.3239933613170066  0.3219779926625661  0.6747279878805243
  0.3008526297360881  0.3423406761419258  0.3281596603587971
  0.3317960536454793  0.3168809807653953  0.9899594393400052
  0.3443046890538650  0.9937577212420752  0.6750245030228812
  0.3331410801770129  0.0186619783021846  0.3418557733259580
  0.3426406172493460  0.0062672555530782  0.0141385242677141
  0.9924235250775313  0.6611721456772677  0.6492830696786199
  0.9907668912019187  0.6763384255780682  0.3334213061754647
  0.0260644760362141  0.6771917770486581  0.9977343308435438
  0.9877157595215867  0.3086705193880671  0.6723639638236558
  0.9838788534782748  0.3159433589140279  0.3201532252048314
  0.9925755743603838  0.3112451283047074  0.9746978213594859
  0.0106181547593925  0.9916429696496778  0.6703757253417952
  0.9990168186582837  0.0013916545673295  0.3567161859547071
  0.0147162258563436  0.9882034241093614  0.0087740663851035
  0.8194814191393650  0.8407784199612587  0.8339604249547188
  0.8231302881659002  0.8414249719579051  0.4944037453367631
  0.8260097724620489  0.8561120260613166  0.1627361640334317
  0.8465656725603187  0.4989743547524542  0.8413593765326244
  0.8085419374919081  0.5063301893687800  0.4969670790667369
  0.8459980671130436  0.5097280488537240  0.1663771384050297
  0.8461750693252752  0.1581689735145504  0.8380980338499778
  0.8278311300841614  0.1543692760933059  0.4814556205608385
  0.8119143721394134  0.1646086334254212  0.1559689670348419
  0.5129296197765271  0.8486405246288096  0.8413648825483754
  0.5310330756826325  0.8206587096696181  0.4979324536666140
  0.5023364503256456  0.8439162011727865  0.1707592892976427
  0.5196084573679356  0.4924177426136364  0.8237979392947159
  0.4581548844062673  0.5026015640846748  0.4953474197569156
  0.4988177823774583  0.5121614649032195  0.1649138337483738
  0.5022878273483148  0.1711050640023720  0.8257600242017592
  0.4993488699849730  0.1750023919896724  0.4911522810941405
  0.4911761612524082  0.1945219465644507  0.1666876412565188
  0.1856848772027922  0.8267304685390660  0.8363663918962789
  0.1715831409135021  0.8276892440171237  0.5049687774277404
  0.1839060292611104  0.8424015610163342  0.1750005813277427
  0.1608488393235908  0.5049959926844038  0.8374007131492738
  0.1491159549763037  0.4826039577893953  0.5095890938656427
  0.1625708356283727  0.5093718582171245  0.1497500133362265
  0.1730053123936651  0.1472155952501334  0.8407708806138230
  0.1813896586066601  0.1641816742922568  0.5128877640962485
  0.1586943272631309  0.1619256855517973  0.1724153247482897
  0.6688022131657055  0.8912208116144765  0.8483376037304953
  0.8739887078916005  0.6657761869803767  0.8525474385970765
  0.8422907371545635  0.8519216241915037  0.6726182121980416
  0.6772416397789158  0.8095036836996721  0.4863811160188237
  0.8304013058484141  0.6748093726156794  0.5166411259658233
  0.8335475080252082  0.6915958381366305  0.1634335657049555
  0.8311420269085674  0.8679219440223558  0.3275405777127907
  0.8113135686559925  0.5358523932051417  0.3202604305703367
  0.8256334200913020  0.0101183635087657  0.1024858680617654
  0.6722667926062208  0.4871945579364063  0.8544479856810201
  0.8250277583586888  0.3176625111187620  0.8253269922571047
  0.8253150428275807  0.4944361022404881  0.6750699681382373
  0.6058189394750895  0.4971117020122090  0.4891654191162175
  0.8204234336577104  0.3491907670173555  0.4693412118316856
  0.9939124839568976  0.5226855257593435  0.1838110972084084
  0.6541645512624136  0.5215473189444578  0.1974823318911648
  0.8476861467656533  0.1784213241304872  0.9920476995574461
  0.8286695019530755  0.4846553535107532  0.0036045482816635
  0.6530562226800591  0.1328936385735071  0.8319068430212245
  0.8447831809317428  0.0058821007685934  0.8649128163824104
  0.8270227174185986  0.1963442353509918  0.6743215548501965
  0.6659965742572764  0.1762632493539532  0.4734818166472796
  0.8022218411179249  0.0132823137200521  0.5108401740034244
  0.8173847607297011  0.1272940205547101  0.3060469950350386
  0.6420996157041999  0.1739599938973958  0.1400520370271017
  0.6622240627888027  0.8643382972341367  0.1507881300964027
  0.0065031225631048  0.1688196423688905  0.1778217666335863
  0.3418890460993305  0.8245865231705988  0.8102963789649930
  0.5091004692195555  0.6501755796018034  0.8320069229545815
  0.5270300807754043  0.8065707586624107  0.6643901599100971
  0.3374771687944734  0.8462866219244244  0.5078648607419619
  0.4984359239909604  0.6686646590375307  0.5675980062084831
  0.4764113751619234  0.8249103254792514  0.3400163996964248
  0.3433539296869739  0.8424443945800443  0.2021391256834179
  0.4957363568565587  0.6738497064586031  0.1387457955182849
  0.4988605349703487  0.8393388397548239  0.9916157499649227
  0.3537617164457673  0.4810119095291492  0.8049182971093549
  0.5165450478544567  0.3176508918061110  0.8269940194965486
  0.5125401906183715  0.4703620605043601  0.6654410396957550
  0.2960003116565586  0.5204858319813972  0.5215299416424085
  0.4424053716899568  0.3312572891048581  0.5251749645549998
  0.4717118692621900  0.5013720626703878  0.3352148503209526
  0.3452274730024915  0.5342792921167445  0.1556181710791160
  0.4610288222012550  0.3389348410312246  0.1385123870086626
  0.5119013308496123  0.5027326153566312  0.9856413844423322
  0.3491842335715751  0.1649938318582386  0.8114644640124099
  0.5032983836656784  0.0154106734708636  0.8332140359371748
  0.5184208178675206  0.1701051351051162  0.6537980835652838
  0.3393745782591471  0.1263385547589143  0.5073415058477445
  0.5049539940195210  0.9818161561144523  0.5175594970047671
  0.5018999366357367  0.2166912509767069  0.3316267498947285
  0.3202440682311301  0.1612596600729724  0.1866043475813975
  0.5041040838087757  0.0291421694211378  0.1872578630685528
  0.4908672575746115  0.1897332715493376  0.9920509244733812
  0.8964802156817293  0.8492286966643311  0.9722430388919853
  0.1545279939695238  0.6655867962327052  0.8621632092813301
  0.1418438239450167  0.8001064532582425  0.6694846009837371
  0.9708247075350854  0.8632581867395941  0.5006533161266411
  0.1234808869252915  0.6495444525463416  0.4852795080145186
  0.1542302035367540  0.8205692369136640  0.3583403391450309
  0.0165435221820259  0.8193860912937516  0.1741668855236759
  0.1995727897995157  0.6705674328190206  0.1599845630259122
  0.1754608334769845  0.8537506740415040  0.0075679250523486
  0.9998755293059404  0.4789444411000475  0.8601582098397567
  0.1851667651691614  0.3431276720256335  0.8208658239656530
  0.1397347769999128  0.4909048838152213  0.6728984926910151
  0.9673242985067784  0.4910843961228687  0.5319895497259174
  0.1905799681179170  0.3231551869272182  0.4790438642056578
  0.1699029559158296  0.4913201426649147  0.3230123453397832
  0.8269273036716490  0.3321392030321562  0.1882943098055692
  0.1668234736946067  0.3536841212097047  0.1535845990594816
  0.1668884325348459  0.4940480091008604  0.0014823314010788
  0.0099015705945743  0.1592467760978144  0.8249386562050173
  0.1887629424346674  0.9798149597710747  0.8350083493054514
  0.1716553263994145  0.1474210890696061  0.6822879904191474
  0.9772103573787662  0.1810272080263017  0.5003672867054572
  0.1381855116966144  0.0176344370901846  0.5068374220086558
  0.2067287277042921  0.1531397746790191  0.3449613281511784
  0.1772786688684328  0.1397032946457651  0.0216073043215723
  0.1427395332757499  0.0009767920318442  0.2029863031289927
