Cl O  Li
 1.0000000000000000
    11.7780000000000005    0.0000000000000000    0.0000000000000000
     0.0000000000000000   11.7780000000000005    0.0000000000000000
     0.0000000000000000    0.0000000000000000   11.7780000000000005
 Cl  O   Li 
  27  27  80
Direct
  0.6617346535460726  0.6617789111534729  0.6710462398747370
  0.6730199615651862  0.6476141593236204  0.3569127782789612
  0.6765043383711594  0.6575310604869636  0.0028148299884282
  0.6475443959079618  0.3418582221492656  0.6594451051727279
  0.6719592033395045  0.3626218124004972  0.3487724173889336
  0.6675280752222237  0.3408296093390716  0.0159974943351150
  0.6795973427193002  0.0017690354041093  0.6689783261061262
  0.6458606481942150  0.0009265107759005  0.3281070447422021
  0.6983974715595506  0.0070527286894086  0.9760537083365249
  0.3257019454650054  0.6539770082904940  0.6433139769823792
  0.3420491847735820  0.6788841992776546  0.3246156234749004
  0.3067414336733013  0.6513631892543326  0.0188602859906803
  0.3194249458098971  0.3173320595976993  0.6886845589061101
  0.3310179227018045  0.3423017398150930  0.3472198019179631
  0.3308544426164908  0.3513641964017783  0.0078776064108235
  0.3142014979775022  0.0196798225095077  0.6573779201414958
  0.3484877414570322  0.9693493110214735  0.3452810770924518
  0.3252400271803629  0.9921182385144175  0.0116354659564083
  0.9716990695686882  0.6708735131556457  0.6661665334153872
  0.0014771990773175  0.6797681577181545  0.3480481334052137
  0.0180888906650447  0.6471031524794331  0.9896260896673286
  0.9937372240258013  0.3236379860782055  0.6407081740573847
  0.0041449952862736  0.3552930220380073  0.3157808163482744
  0.0021293135478845  0.3499012561138117  0.9947184713620306
  0.9900031015821286  0.9996156670169436  0.6332657411492101
  0.0046971609266275  0.9974329219577062  0.3386637368387329
  0.9994277022956465  0.9867749817023372  0.9831404414936955
  0.8414294289361794  0.8536331555339892  0.8348354312932377
  0.8283357995969519  0.8464981688288538  0.4909944641398319
  0.8233220864307202  0.8323370202004856  0.1762728709939442
  0.8351613158285515  0.4846584410394321  0.8219772650981864
  0.8668208254261510  0.4900790325755006  0.5096632178248462
  0.8341782491045331  0.5052505350941829  0.1505273081378695
  0.8266906344788723  0.1695506879322409  0.8509777739421380
  0.8293877724886780  0.1662040829762733  0.4884291061393614
  0.8386739919360685  0.1697444409828327  0.1605768901109189
  0.5008778203690945  0.8312771931392321  0.8385372552359666
  0.5083721960582145  0.8352660586383935  0.5137436613212784
  0.5202574573671407  0.8350051706567786  0.1624397958849763
  0.4983999918249014  0.5006751169758972  0.8494747935837467
  0.4966701312292398  0.5101294723307439  0.5091094583877684
  0.4939576897344790  0.4934041397787933  0.1798788052432443
  0.4936914576787527  0.1689135791574614  0.8476098736605451
  0.5125715856890328  0.1530105255239760  0.4952364849073106
  0.4966851513163253  0.1784287435980291  0.1758236651280210
  0.1641849774363479  0.8308039996679231  0.8380975836840827
  0.1586213408256298  0.8313471519275983  0.4930102327004478
  0.1714890514560729  0.8320954032739992  0.1535413861793438
  0.1758166178947423  0.4925052017366178  0.8163616148570555
  0.1696564388899986  0.4898558365105343  0.4779097415907898
  0.1705838179326527  0.5010330484851241  0.1769441798187654
  0.1491950317385148  0.1619063644060777  0.8555349736259533
  0.1702404611710021  0.1674455579505481  0.4795655543716821
  0.1734587881055937  0.1601893984134800  0.1698142133044618
  0.6810426718539454  0.8641839772460798  0.8188030470177179
  0.8258886994788986  0.6741005242106684  0.8335585214639181
  0.8426835859651162  0.8716749116753552  0.6592764834403527
  0.6736481736711328  0.8115418513295056  0.5241198289749132
  0.8639770492615642  0.6771470917936147  0.4984382330665343
  0.8019579356085272  0.8568504500906275  0.3426453149641060
  0.6789059328884467  0.8279748792217325  0.1837149597761343
  0.8513861677428975  0.6550511671868640  0.1641618427965207
  0.8056987065156127  0.8129530107781665  0.0010761094138363
  0.4998590859989243  0.3470714069302422  0.8408750447471978
  0.7913803935258804  0.3302086264115655  0.8431266813060894
  0.8474436175527008  0.4688523297200338  0.6587050318791338
  0.6527425201164428  0.4980467231921595  0.5055086860282351
  0.8725487821944389  0.3274408818468347  0.4853732673975401
  0.8463376371241229  0.4962842718415009  0.3449277204345474
  0.4900953411413616  0.5129639368510459  0.0143956549315101
  0.8565581788619712  0.3253966925284452  0.1391122443799171
  0.8223802338540147  0.5058337679096926  0.9801582431822060
  0.6621294672637493  0.1832353738924480  0.8523707959271486
  0.8657469094422406  0.0066726282553203  0.8104544696643996
  0.7868563109073912  0.2121078881128931  0.6264488887953361
  0.6612732413290543  0.1594523817683358  0.4547417228435757
  0.8104839200281765  0.9898930028708947  0.4999882574712690
  0.8482724348648705  0.1351016323766612  0.3403333551444127
  0.6730271679681544  0.1715911424715641  0.1487412841572768
  0.8216819415034724  0.9926651654059844  0.1492849930913385
  0.8604823486760578  0.1421451018126408  0.9980298015068396
  0.3426390571963211  0.8448740561239400  0.8513092684786779
  0.3241897749185591  0.4922650422848891  0.8323510845980451
  0.5293024647421444  0.8497306049288074  0.6657703027083627
  0.3565602083146003  0.8136202913046994  0.5226667671269707
  0.5075337027330705  0.6641044740709040  0.5133850820454925
  0.5015539267149930  0.8316927353867951  0.3255696216745861
  0.3131943626772781  0.8373504904542574  0.1684376081531796
  0.4574187165899891  0.6766760440490321  0.1680465595786267
  0.5572536727314256  0.8220379367673651  0.0067185407536385
  0.5025313659670305  0.5144099947230701  0.6599310920335761
  0.3262837410484625  0.1496069879602887  0.8211536299184884
  0.6477034225981826  0.5010317124665963  0.8348330021686416
  0.1585990131220512  0.4719196663182763  0.3227127282371807
  0.5074695333583252  0.3246965378490460  0.4654175230161325
  0.5001350345530348  0.5210986297836827  0.3390563238588633
  0.5068591348327497  0.3363573682880028  0.1814052468966924
  0.6656776895611886  0.5029369153726823  0.1651581482495875
  0.4952554900353246  0.6738225513860611  0.8236588572067668
  0.1363993041669345  0.1609327409039265  0.0124732644608257
  0.5230065381578918  0.9949322594841640  0.8371508728581851
  0.4736865235242752  0.1793854948055903  0.6682584550320889
  0.3116022132035070  0.1539999282146491  0.5233108899990212
  0.5052618234692120  0.9963069653003943  0.5113877748318066
  0.4770945853325228  0.1222739415739378  0.3306680910465146
  0.3326270355623379  0.1861714972770943  0.1799920024494199
  0.5107188923596312  0.9945165910359873  0.1650571472731546
  0.4680497803845687  0.1977039484811504  0.0173311368754428
  0.9921359912707608  0.8360530950075111  0.8329884868920467
  0.2038577237367821  0.6727247894956996  0.8127592230811246
  0.1806558389441582  0.8384425439018182  0.6584072616890688
  0.0093577881811337  0.8096505349190268  0.4906745484305332
  0.1832120067565735  0.6633831050366993  0.4985807417095021
  0.1491820865286884  0.8254174158761990  0.3318317024561338
  0.0062934430751345  0.8423388597538704  0.1471866342944572
  0.1461981397535575  0.6678917222285937  0.1622903338728523
  0.1750701276636735  0.8582712450668529  0.9915067198273384
  0.9918549105583567  0.5198088860794141  0.8380258435376796
  0.1626192548139113  0.3015101184830168  0.8395210506973636
  0.1767140984621601  0.4633483382395010  0.6535497817197727
  0.0098021003731310  0.4834971170554741  0.4759497214396531
  0.3362415324758390  0.4863593545669908  0.4981035401826097
  0.3226177466935252  0.5027348931771114  0.2067778379137497
  0.0177535057336439  0.4882794156185227  0.1368941499831559
  0.1777878322617258  0.3486743052803507  0.1735265836964785
  0.1769969092932544  0.4943955464972580  0.9816137354199136
  0.9976866687547928  0.1943400764978459  0.8069753154763081
  0.1374814994171764  0.0277122480314820  0.8187337359959108
  0.1506185189945007  0.3261887490883947  0.4724294340750685
  0.9975559587621904  0.1458530491736222  0.5064500527800212
  0.1635406825013050  0.9882643425157929  0.5092482423730224
  0.1768392793496762  0.1319535375069526  0.3248551351600702
  0.0045005470124978  0.1729057442175322  0.1613901104189115
  0.1993836203568564  0.0073486511000607  0.1792212817005056
