Cl O  Li
 1.0000000000000000
    11.7780000000000005    0.0000000000000000    0.0000000000000000
     0.0000000000000000   11.7780000000000005    0.0000000000000000
     0.0000000000000000    0.0000000000000000   11.7780000000000005
 Cl  O   Li 
  27  27  80
Direct
  0.6832355151353303  0.6453826148582016  0.6752321927306908
  0.6895113204708456  0.6570694976584510  0.3294081287424860
  0.6625361347442544  0.6916003944702126  0.9863409718808404
  0.6535680901335352  0.3385232478360944  0.6654068290792086
  0.6623250843022682  0.3232800051710092  0.3238557571970820
  0.6812935109916143  0.3236593737047961  0.9922231103744321
  0.6718108563352237  0.0065750861947224  0.6825151940945452
  0.6634844649865492  0.0054598801533555  0.3257992593009657
  0.6841362345355428  0.9963367087360445  0.9952842267689891
  0.3057564556727337  0.6719561853182472  0.6673171331469462
  0.3272146338594984  0.6562309638478973  0.2902311262866941
  0.3355124222660545  0.6731113555198952  0.9867521467648067
  0.3405810134054516  0.3274942731899782  0.6348565387429819
  0.3228738894198955  0.3342878059477299  0.3536653669585655
  0.3524039676684894  0.3311134461683267  0.9935852464197547
  0.3334737996915308  0.0037627804779294  0.6795319052073256
  0.3378774787008763  0.0319060999609465  0.3454578002880475
  0.3560285454490641  0.0109048552927260  0.0353051450645178
  0.9997523220601938  0.6255858566816049  0.6512554779200442
  0.9906525398233029  0.6777275829313943  0.3442906868904689
  0.9999248199542780  0.6823690732386923  0.0259898646838088
  0.9868110032612298  0.3517606408659978  0.6837725089854569
  0.9960992849341891  0.3393306078809991  0.3249350577405136
  0.9775293118539066  0.3065304825866229  0.9886311720578631
  0.9933525421758617  0.0010703828984470  0.6649667526732255
  0.9835904749324730  0.0084750019593048  0.3572708356256514
  0.9537256392763324  0.0077613536192914  0.0013677488640684
  0.8470257186890793  0.8165875188143205  0.8316454687695385
  0.8277625177300035  0.8375435767043782  0.5151524769973966
  0.8216674392644338  0.8227296413262334  0.1767474251077197
  0.8524116547142445  0.4930840734580001  0.8536298560719211
  0.8334648877192129  0.4741873464296472  0.4885869226485180
  0.8416327382025857  0.5055800571757815  0.1563534868918909
  0.8190815551611266  0.1732983223251030  0.8184723260852005
  0.8300876757933353  0.1694614390548342  0.5141354430144437
  0.8314513863415534  0.1694928354902381  0.1747958056791442
  0.5045649801311448  0.8403051674867991  0.8162308918496123
  0.4855714929730496  0.8232353040963097  0.5030417119551378
  0.5016835120499095  0.8307597604450105  0.1776628204690332
  0.4940429840309276  0.5113728310853736  0.8230100927722476
  0.5130700740792682  0.5054720421020773  0.4961600829453696
  0.5294185684355528  0.5107297203485713  0.1232995180772283
  0.4878507000961063  0.1725980664321789  0.8285690634394708
  0.5257765414432964  0.1765313454635007  0.5176671877500396
  0.5063181198375186  0.1623621807239655  0.1715857984962941
  0.1544224285574483  0.8217148340408269  0.8333350058969058
  0.1691186424848574  0.8319713268226966  0.5153010584518546
  0.1782691750808541  0.8264376190512724  0.1742879566969316
  0.1714817151345924  0.5043988548555459  0.8282884185778080
  0.1683962107086419  0.5028230817300930  0.4802929196277908
  0.1733102184315584  0.5156233537889385  0.1561338535429988
  0.1659996566248914  0.1540148989037651  0.8646261792349255
  0.1656961982347308  0.1667481777305222  0.4972001936119850
  0.1553618520095578  0.1516710669451012  0.1585398508486164
  0.6527779363878526  0.8597456135705662  0.8398086229453589
  0.8433838131530528  0.6515621458888937  0.8045482600174061
  0.8059408817755557  0.8211543540256999  0.6668261260952661
  0.6744713550490392  0.8120462703820190  0.5019672696608983
  0.8335397857275909  0.6270093236948857  0.5026098540873715
  0.8591615442000873  0.8525175913934021  0.3312980484063219
  0.6442082277254747  0.8264298458525650  0.1695828132038649
  0.8252688593905261  0.6760988548897480  0.1493331245036312
  0.8556171275311819  0.8312557876875224  0.9814607745358949
  0.6738332645030688  0.4864594863159031  0.8158365639568549
  0.8348810673587058  0.3365849683500924  0.8453434643082613
  0.8407286989987587  0.4629464104198212  0.6702982358220293
  0.6606736034602388  0.4795858734173018  0.5112586307553506
  0.8182905512218355  0.3290926574168790  0.4903137468384345
  0.8407536380112779  0.4894930580822607  0.3222478588988467
  0.6812516490777425  0.4869362829886962  0.1424978310455324
  0.8343162958901258  0.3408060581606353  0.1696831259283290
  0.8652881203145857  0.5006292178511774  0.0063475735281393
  0.6741550830266344  0.1708014858809459  0.8069948743105398
  0.8154872604671827  0.9861914742887652  0.8248607618311524
  0.9914264877755781  0.1369192463071477  0.8506692390142646
  0.8473723547689347  0.9886415222507291  0.5189009401323695
  0.8633427153964354  0.1852104659462255  0.6746174217808424
  0.8322507302752911  0.1591483679125815  0.3248881149076951
  0.6663724107333743  0.1551463750192491  0.1782992106277864
  0.7869491759754976  0.9786383226406044  0.1670197223863507
  0.8315510614208111  0.1711947206676353  0.0069346929430028
  0.3207038107193160  0.8169694581716380  0.8187783957843018
  0.5141709938316045  0.6755737186374935  0.8410874760743553
  0.5001228804677721  0.8417356789614084  0.6690307995786343
  0.3197592253774401  0.8150583039102919  0.5003896342065888
  0.4936760242752854  0.6707446189405613  0.4843266429611590
  0.4371460034719256  0.8326511578263092  0.3438671285317390
  0.3501112384185148  0.8393386997808535  0.1729366346841532
  0.4721185961060674  0.6582571776442759  0.1287366580246075
  0.5209980080233717  0.8516992193169954  0.0234207212975096
  0.3368419833709934  0.5389725042601975  0.8339264167652223
  0.4905912789507711  0.3290996816355026  0.8231872569261189
  0.4906505495909146  0.4996508879201214  0.6469990443466289
  0.3290295340587266  0.5183192772364463  0.4791636600885005
  0.4717681948830882  0.3446768277190190  0.4836068123725317
  0.5397813759039094  0.4874589091455349  0.3018172409016178
  0.3433540615588837  0.4934724095100874  0.1274419346149168
  0.5173758998528030  0.3242270196374813  0.1658652505580241
  0.5098070310094045  0.4798637247856790  0.9683385953916497
  0.3238298309192580  0.1650825978444833  0.8235100066141131
  0.4650443375158329  0.0003452170128188  0.8385092032281161
  0.4972729505208753  0.1407296824833772  0.6750357980071009
  0.3266803479045990  0.1834102619508034  0.4881869672837795
  0.5304493674578834  0.0134175987074800  0.4949396907483178
  0.6763836429018636  0.1734350617971553  0.5280841646968880
  0.5178470690536153  0.1866109170039588  0.3505879494932493
  0.5168776863981547  0.0028262577421833  0.1884661901682921
  0.4852464356166892  0.1811049012529294  0.9965428194806517
  0.9970080742152535  0.8237927072202814  0.8409708780937453
  0.1332268893462782  0.6621142226486920  0.8141054078280752
  0.1784145581879273  0.8478790160356194  0.6739294532098332
  0.0032730645693478  0.8770285921589484  0.5072953520352677
  0.1087818494348671  0.6590065625821552  0.5078271683801613
  0.1773583545708630  0.8663921033194376  0.3456268673599321
  0.9741946298511645  0.8205893396446604  0.1705466999649270
  0.1605804213500556  0.6707797197909741  0.1976274918833313
  0.1386875816808865  0.8104163277780747  0.0075229851695852
  0.0050655048548305  0.5004886525078864  0.8372514025122851
  0.1528714527455802  0.3221894091982060  0.8531568245422516
  0.1765034039265810  0.5315067922413108  0.6538315645541474
  0.9895505016615171  0.4540272316988925  0.5016407953151902
  0.1643365969556209  0.3419482730311043  0.4856064272545839
  0.1675335475937674  0.5144752685340290  0.3122037525774908
  0.0129786454934027  0.4940187196317374  0.1743348792870452
  0.3429807455938819  0.1554708352158130  0.1543509975457334
  0.2113191965680482  0.4756778977671888  0.9923642418808777
  0.9977206746789927  0.1703290818751306  0.1774700590680725
  0.1251633090361905  0.0085587023814208  0.8344211484746162
  0.1476701605537718  0.1731650645983051  0.6518249861815865
  0.0045134948302710  0.1470918229555768  0.4707559740366786
  0.1806928139038505  0.9991986425279138  0.5365552104152568
  0.1592887647101675  0.2350159816157711  0.2731147451601906
  0.1653674465847139  0.1850674512356335  0.0154996268573467
  0.1597721908688374  0.0070732705504823  0.1803871646743146
