Cl O  Li
 1.0000000000000000
    11.7780000000000005    0.0000000000000000    0.0000000000000000
     0.0000000000000000   11.7780000000000005    0.0000000000000000
     0.0000000000000000    0.0000000000000000   11.7780000000000005
 Cl  O   Li 
  27  27  80
Direct
  0.6613820626566355  0.6612602417652805  0.6807566739638788
  0.6495812943982416  0.6608825533760059  0.3139106215955384
  0.6333740941226268  0.6511692128538112  0.0052605573746217
  0.6677164908657351  0.3247675586992478  0.6925079690513332
  0.6733782944741910  0.3045745293302169  0.3490871999676329
  0.6606696408980262  0.3385036307660138  0.0321986126033350
  0.6728034016531276  0.9863030754929568  0.6495841228769658
  0.6815317321516271  0.0023865707007645  0.3134263756073173
  0.6624352096252497  0.9886065447630855  0.0473547382572567
  0.3222055815233702  0.6495574481989270  0.6629622836772098
  0.3425404312834001  0.6608286268099739  0.3277692227554697
  0.3455984562373579  0.6757623180307034  0.9951032136779726
  0.3472917989932591  0.3591722827309498  0.6581075567157892
  0.3375344710731710  0.3493272026848296  0.3299921956441279
  0.3295251412123950  0.3513568982264628  0.9942503309525198
  0.3382020754829833  0.0098428376000304  0.6940209897913883
  0.3098933408385746  0.0122451051872578  0.3120316329923847
  0.3364327213699310  0.9846010637986535  0.9853633760875605
  0.9827665955224310  0.6630196162247841  0.6533667152125132
  0.0207420011327328  0.6788085212449606  0.3141730682654359
  0.9686683738727907  0.6727887051564582  0.0182565204067673
  0.9848562588123598  0.3323659818918984  0.6636827620323960
  0.0021340331278117  0.3455054609578762  0.3177658852419173
  0.9829253438754585  0.3333588460851207  0.9692256981169860
  0.0351535899766149  0.0080728736754910  0.6741508720519910
  0.9948005546813686  0.0024286065753821  0.3402067657840112
  0.9965468795545983  0.0185986501008609  0.9839463475196284
  0.8503924094163351  0.8242936920365425  0.8497690095741995
  0.8482281403720812  0.8461103078001583  0.4844986291177872
  0.8281574174264609  0.8331575676875014  0.1657161266857606
  0.8310879943099465  0.5147691299930677  0.8565077250869007
  0.8301606355099972  0.4834067833043839  0.4840432897122590
  0.8453189397850409  0.4923753947108420  0.1597275248483174
  0.8049689130618202  0.1550304532802878  0.8283954661369018
  0.8466229748390165  0.1747781431400443  0.4941453711406404
  0.8296393453716865  0.1623402762282234  0.1671372151812078
  0.5166545358265591  0.8342304310507535  0.8294893819133198
  0.5053599566485705  0.8084123993108967  0.4828675529223646
  0.4896246543111469  0.8408530344077636  0.1619874811589504
  0.5002353944299397  0.4966903701870219  0.8343388862568587
  0.5061553734975446  0.4963606974939290  0.4893692668453118
  0.4961250727009763  0.4834944747023011  0.1824963979389918
  0.4998242246066494  0.1814437217596996  0.8521391874133780
  0.5028550838505416  0.1457409747573974  0.5015459016495334
  0.5017055816062844  0.1659201682375835  0.1703296618174991
  0.1531876184410685  0.8094444533809354  0.8479125106162644
  0.1989103829458158  0.8426667807728088  0.5143993715370322
  0.1684776116332751  0.8525450588550748  0.1517668888143396
  0.1678146731669577  0.5028425330805988  0.8246988243266445
  0.1584543957834452  0.4942418125942112  0.5151885536328765
  0.1610146931076739  0.5157792814563319  0.1550855284733952
  0.1894604202579469  0.1719193064029620  0.8347622017031292
  0.1588814257660770  0.1674607494204510  0.5184692483414715
  0.1699922619110799  0.1775970410202267  0.1647504889307188
  0.6932970351909188  0.7980487821343415  0.8267596936339269
  0.8778340680361865  0.6656274839056855  0.8168388249004104
  0.8333529100832963  0.8032037084104230  0.6454978494815033
  0.5180149265711628  0.6576561496021325  0.4770647791165187
  0.8705400546408301  0.6219719854029900  0.4713260127437783
  0.6497879319305450  0.8649021776167821  0.4767065237240123
  0.8359943401690330  0.8598536469980075  0.3209229779939837
  0.8199748302538722  0.6739303937165980  0.1683617065260153
  0.8025236752726240  0.8542409117063917  0.0170333853231926
  0.6439839030769910  0.4913214380340291  0.8266063349010969
  0.8073807908732307  0.3715893603847696  0.8386638616292925
  0.9841489974354357  0.4718839068997772  0.5340743900859571
  0.8291756254863022  0.3223780693195308  0.5065073481515401
  0.0110372205014886  0.1913359470656880  0.5128378897612862
  0.8358527222050837  0.4855187451990031  0.3057042897300234
  0.6685759961186348  0.4989037075481160  0.1535640260399591
  0.8440849444902514  0.3428714801875675  0.1617835359064076
  0.8252583381919043  0.4955163337843447  0.0083603958497347
  0.5077885549342838  0.3227717494457295  0.8087938881215972
  0.8543977929627494  0.9873006802746487  0.8325325892072417
  0.8086902509721373  0.1486946384458977  0.6808327865345548
  0.6869474654385038  0.1496077261388451  0.4707002702478379
  0.8805988166805820  0.9997874750695440  0.5065316393975006
  0.8439253510042916  0.1545082623416060  0.3290396751619048
  0.6979529383041533  0.1602693159325150  0.1917083266591534
  0.8332481338423869  0.9924407559962988  0.1860885873916193
  0.8292163538086956  0.1617916786809122  0.9979109261984916
  0.3694262252248571  0.8287263585994007  0.8543161688763512
  0.5376537106781967  0.6692846119558471  0.8439703652801670
  0.5020370356574144  0.8251697963075151  0.6381437557378047
  0.3480875802109226  0.8537643174606482  0.4906635449154931
  0.5053161514350218  0.5176558611775945  0.6301311263161191
  0.4827646445102833  0.8731119709848465  0.3311496330287322
  0.3355962523152838  0.8544161325605862  0.1253507458708224
  0.4710452924112668  0.6813018152157484  0.1648754876338902
  0.6655699139456225  0.8283224761498988  0.1553080362863927
  0.5161693586739097  0.4790777593909568  0.0010197480798982
  0.3418742033775256  0.1614975116923315  0.8151941456072498
  0.6852346896858343  0.4895602822164885  0.5006025915980702
  0.3320446090007052  0.4945449268583873  0.4567933699938553
  0.5187453643371926  0.3088040603487310  0.4783763444567418
  0.4920068968024857  0.4937642062132194  0.3363106321163037
  0.3221995694399950  0.4875188459059744  0.1672672340752110
  0.5077117541116389  0.3099851007273268  0.2148000506513469
  0.6501064711359059  0.4963402118765024  0.1525403625711294
  0.5151559278924407  0.0074816247488142  0.8674106079237774
  0.5190147947403037  0.8101119871841925  0.0103153601423936
  0.6449860384290882  0.1336121026155456  0.8239985886764254
  0.3296703826205333  0.1612072110603995  0.5095460210795494
  0.4960748707926580  0.0493468483028739  0.6208085104851977
  0.4798188046272528  0.1079930667868673  0.3506240261287290
  0.3419385751793207  0.1901873355004493  0.1554946942688936
  0.4566838219745449  0.0248694175331775  0.1486522652572939
  0.5069390495776378  0.1910186831507399  0.0123179813090457
  0.0036618272469854  0.8324476155388979  0.8292433925625604
  0.1534137193341976  0.6611414980579441  0.7904878432241821
  0.2267266328210819  0.8208423918104856  0.6699675956143266
  0.0261375322000523  0.8271869413720687  0.4893967159532471
  0.1967211951317475  0.6741521323068068  0.5046977717837182
  0.1648804323538732  0.8527081340862890  0.3256068970108926
  0.0043015068452957  0.8442198010978785  0.1684536387706231
  0.1792018424774654  0.6712445106507541  0.1907683971394198
  0.1520289057660513  0.7963500143335092  0.9965160450475469
  0.9866599875687843  0.4744988190420070  0.8314521145869219
  0.1975259641104163  0.3281946284074594  0.8354574171625165
  0.3385158778953821  0.5085079398905386  0.8192336178688288
  0.1880840985045343  0.4841011080847527  0.6745892075853469
  0.2110152776036342  0.3282395672124861  0.4994085554028855
  0.1271676353551084  0.5029275119560502  0.3377943211768615
  0.0125275671245547  0.5190549154886851  0.1398134399537319
  0.1869137462741610  0.3342870955640884  0.1435242212934087
  0.1706786920365116  0.5419197794863131  0.9892872991936805
  0.9527553304644042  0.1863098858494265  0.8372075204631451
  0.1808819262616132  0.0276968806078990  0.8359069671544239
  0.1184186775402474  0.1883430226509041  0.6667501391160485
  0.1699140845844973  0.1600869797675246  0.3619536656717205
  0.1557961946166435  0.9929892118446751  0.5047006867332335
  0.0066505139780013  0.1981966046331104  0.1395100726557437
  0.1556087370472964  0.2024054071217384  0.9988960475570643
  0.1602838504875446  0.9900882538340636  0.1425231992900846
