Cl O  Li
 1.0000000000000000
    11.7780000000000005    0.0000000000000000    0.0000000000000000
     0.0000000000000000   11.7780000000000005    0.0000000000000000
     0.0000000000000000    0.0000000000000000   11.7780000000000005
 Cl  O   Li 
  27  27  80
Direct
  0.6995075955178395  0.6718169443375284  0.6715815850514316
  0.6572352000747206  0.6516356557373781  0.3554351079029153
  0.6718122148339315  0.6616631225552512  0.9925413462613681
  0.6726486029177589  0.3577640487075212  0.6828556786119936
  0.6556725442220867  0.3106349020324852  0.3217008020170161
  0.6772207012324297  0.3125904485458241  0.0188069340866930
  0.6465581853398659  0.9817687693976547  0.6864177469196302
  0.6750795088718382  0.9887058634190325  0.3379023140925352
  0.6532068208154639  0.9772220706170410  0.9737183494903504
  0.3122511476145323  0.6748018121557354  0.6537753325396519
  0.3374589630131580  0.7050673686038958  0.3478986678728738
  0.3273874075838669  0.6655749443193080  0.9837442057480095
  0.3179336392674642  0.3581225065270771  0.6691474402645573
  0.3590940421986296  0.3226102636212195  0.3306886844786028
  0.3438254556669256  0.3552667466811498  0.0033849078513389
  0.3197426285968420  0.0160550774008066  0.6479924370700836
  0.3373841864610099  0.9915740427970418  0.3342693963175140
  0.3352663541819503  0.0231181050852915  0.9877525131001225
  0.9970813980604571  0.6858991464165252  0.6566426307274105
  0.9905054788091925  0.6811171717367562  0.3336707790462293
  0.9772131255701347  0.6490843866595648  0.0139593401484352
  0.9955704436577701  0.3490368113150898  0.6673719930973100
  0.0080352982071114  0.3190978911542771  0.3186097814539620
  0.0030160436003952  0.3311584947736276  0.0058804190309052
  0.9887951764620362  0.0017094732911255  0.6802303617194110
  0.9868789058570094  0.9957884695947278  0.3197592229701044
  0.0108567504636268  0.9856489239801285  0.0335951194789506
  0.8494015869658286  0.8166466158568683  0.8468046659435038
  0.8295852743362336  0.8423014104238709  0.4920897630213242
  0.8075093900074004  0.8266066744672009  0.1573423654921380
  0.8438787292842665  0.4710052625236958  0.8600071200646342
  0.8405135820105492  0.4953635523229706  0.4856749712735053
  0.8286103856650220  0.5044979109976987  0.1570900806601339
  0.8379374144056263  0.1403665167003131  0.8445377258996571
  0.8295196879721405  0.1642916733414087  0.4715073449795475
  0.8278003535830617  0.1507040106661085  0.1595444479092702
  0.5057480672604172  0.8203008289575148  0.8323186623858247
  0.5106278546905870  0.8317042734028158  0.5084777306522944
  0.4948316218112127  0.8270311235049495  0.1767626498417579
  0.5057124805850853  0.4998319675028005  0.8307332537328079
  0.5040424169398962  0.4917680025813185  0.5112589163731234
  0.5155741191638684  0.5072027817208018  0.1686502238845849
  0.4920239181468770  0.1858667632707105  0.8147836216351935
  0.4891679558739001  0.1690735063222430  0.5173072746756291
  0.5175080667110077  0.1617446147462284  0.1660113646223792
  0.1593408514275225  0.8360914343649083  0.8184017217501788
  0.1644027624742805  0.8451509355166682  0.4929873245595618
  0.1885977543725864  0.8456425903349072  0.1793668333503551
  0.1388956283186599  0.5008552767242933  0.8469357577008703
  0.1624913956645321  0.5016601266737820  0.4820870732743308
  0.1847420453866983  0.5196720450680266  0.1694502560702915
  0.1477468624003667  0.1663282311600256  0.8341962947277457
  0.1639660868427320  0.1845650358851013  0.4842394396080641
  0.2025858886016016  0.1691933734997052  0.1621000185618891
  0.6762166630660655  0.8123475511467922  0.8400924278888997
  0.8151789460653049  0.6684527282282394  0.8438445347107667
  0.8110097585502973  0.8351429421809736  0.6503450442413506
  0.6614953583058498  0.8305750543489357  0.5057643175076952
  0.8427689432271547  0.6801575055796796  0.4948412729366714
  0.8286102237233822  0.8231385323106115  0.3340372529769522
  0.6565906723485708  0.8401015951896948  0.1429285170563138
  0.8339371320208635  0.6684194492212737  0.1487605213281322
  0.8421440104394127  0.8253581044248351  0.9970439004468328
  0.6614115535072865  0.4722114038564507  0.8506472981419835
  0.8373043845358975  0.3019383525807837  0.8563021382599303
  0.8339806943219525  0.4743162403189214  0.6804635576806309
  0.6839001461049875  0.5188697052139538  0.5146288004398031
  0.8693825942430349  0.3404313945211499  0.4838041404804533
  0.8586584949764270  0.4898044197141077  0.3403578959039695
  0.6788953802143514  0.4996472730626814  0.2098643711974378
  0.8447460887066934  0.3472957362608763  0.1570717002840239
  0.8368321627144268  0.5180142889874575  0.0072112060846636
  0.6594142462936005  0.1630960379725316  0.8243178547038399
  0.8295049512829247  0.9666661502736371  0.8625045030618252
  0.8063966890007731  0.1467328575337934  0.6544710338239585
  0.6660939745640277  0.1649934676799103  0.4555062154404970
  0.8118066733594390  0.9965465620586653  0.4416123514885132
  0.8435721737602458  0.1566517424822233  0.3144999455499179
  0.6795142806760130  0.1416867661609671  0.1423259018507981
  0.8259364053096985  0.9687628086833012  0.1709160303369534
  0.8383059935776657  0.1450689173068569  0.0017372879889898
  0.3360466294876091  0.7973927265420770  0.8238925959578929
  0.5052840234917534  0.6576582248337560  0.8451032261056158
  0.5042126580886689  0.8637376252757463  0.6765936788012659
  0.3438026623811327  0.8487403719614202  0.4760127233386473
  0.5064570882445921  0.6641149189808566  0.5122916586951307
  0.5207492071740970  0.8470343167867997  0.3441071687471410
  0.3494093653466682  0.8552972270126977  0.1957798614500746
  0.4967137480336362  0.6565681146858721  0.2069160617044012
  0.5084429785726766  0.8050664930826149  0.0106848232603623
  0.3096392313926377  0.4889844687067135  0.8478087850806879
  0.4997599917333032  0.3414152304679570  0.8090457054560618
  0.4684527861729497  0.5214854270643822  0.6874350643004528
  0.3290930781470929  0.5099082192396440  0.5232717067233417
  0.4794751009691319  0.3414943389589681  0.4918122760216362
  0.5112180105111955  0.4984759086970599  0.3472561239318108
  0.3524376335243245  0.4965132165088676  0.1514274268580697
  0.5261498394030681  0.3163306728998754  0.1697418927207513
  0.5343571226757168  0.4968103389323735  0.0077516179881538
  0.3087105163314558  0.1719484056457166  0.8329017332596950
  0.4824794827549271  0.0100830695207601  0.8528186116475659
  0.4451265504437134  0.1849625823679486  0.6781188856497108
  0.3249292144634919  0.1340733937306985  0.4952565722717747
  0.5112001969308245  0.0179674398986056  0.5232160392846824
  0.5008543528492302  0.1606530977303492  0.3208411955505915
  0.3476482904999473  0.1313143737718086  0.1360863815639362
  0.5188882143356590  0.0021967314887333  0.1649785413295519
  0.4783930069324148  0.1819002052324229  0.9978028326667342
  0.0096165362303207  0.8373824331168850  0.8415952463056513
  0.1232322280692791  0.6701185004199754  0.8290514898041479
  0.1806735653289017  0.8462302765455099  0.6490275275458672
  0.9857616527721028  0.8137311805166980  0.5099943545938335
  0.1842119091863170  0.6928312202470712  0.5000283041428305
  0.1660057924019713  0.8284547524598700  0.3356456371001068
  0.1788190906414631  0.9936820261246376  0.1758270725035922
  0.2213957136975312  0.6579740515166516  0.1754488173185785
  0.1149998742065289  0.8175991565817964  0.0514583324321693
  0.9958184579116106  0.4896811011554487  0.8885805078337817
  0.1370103847196714  0.3410812663214111  0.8683946443823091
  0.1114726233514356  0.5125077874115088  0.6476449912820298
  0.0088943600182554  0.4772195705215212  0.4729172493805004
  0.1773166365934009  0.3441868616320414  0.4937432276484403
  0.1447940995122375  0.5517521575894309  0.3281454517546613
  0.0158052264524259  0.4861906110525754  0.1488661882480601
  0.2019767046383242  0.3482342285485573  0.1811719968084941
  0.1520515849464809  0.5151507964282327  0.0070170601990785
  0.9865261375027181  0.1428084144431897  0.7977997492554039
  0.1544136150969101  0.9871508555133689  0.7984282447592199
  0.1231169357431394  0.1594227663651587  0.6190791742845398
  0.9942182129373142  0.1439885337787095  0.4907577525490843
  0.1367713284953633  0.9782380317366308  0.4756592857099231
  0.2157352258648984  0.1826610475413133  0.3252198950620077
  0.0235231815527375  0.1624816415127251  0.1834101314831727
  0.1861673544861311  0.1498682703488401  0.9979767020040797
