Cl O  Li
 1.0000000000000000
    11.7780000000000005    0.0000000000000000    0.0000000000000000
     0.0000000000000000   11.7780000000000005    0.0000000000000000
     0.0000000000000000    0.0000000000000000   11.7780000000000005
 Cl  O   Li 
  27  27  80
Direct
  0.6430999147761584  0.6767461126896556  0.6595132347492086
  0.6642169426561140  0.6696761455528741  0.3348012391782424
  0.6560641122598267  0.6602110615643949  0.9935520416946130
  0.6764081522079118  0.3451924269658210  0.6905324675887012
  0.6547237213077307  0.3451499172853902  0.3423825572851957
  0.6744529498205574  0.3130094815031843  0.0356922623956495
  0.6687348310068835  0.0235760192182171  0.6553203632693897
  0.6502072904317190  0.0074078323283345  0.3414621214903453
  0.6834139499699476  0.0166682885055629  0.9846649868812980
  0.3459690298195615  0.6792864911921966  0.6572330559763134
  0.3349277071234153  0.6669696958987834  0.3179188029930428
  0.3267919818128251  0.6687395560794599  0.0013800399346324
  0.3284552034237355  0.3291686660826174  0.6742232440800527
  0.3421628749754325  0.3259307644523226  0.3498590384231249
  0.3280303495318876  0.3521081446907537  0.0302795149077556
  0.3305822056481451  0.9903731716343674  0.6769872235016595
  0.3280494384026715  0.0148639714455253  0.3501370517331419
  0.3288563935934768  0.0307318078330443  0.9824655081820920
  0.0080389919794714  0.6628582000929319  0.6729808683054067
  0.0118133101093635  0.6358191688748748  0.3587133595173392
  0.0254145569048655  0.6527680618604811  0.9682257103190814
  0.9692119137779230  0.3310975124681048  0.6631254644797535
  0.0137571753167674  0.3230824134364132  0.3655236532348037
  0.0086942040583367  0.3411246149172883  0.9964542266029209
  0.9847057079933995  0.9865883690484716  0.6389085902173781
  0.9719676417669177  0.9996711663264959  0.3347424543630182
  0.9935685670810183  0.9813629551433568  0.9799259786079904
  0.8302321838544278  0.8254644888039798  0.8236608030164454
  0.8186434781732683  0.8242000484809199  0.4824364079070766
  0.8530126762577533  0.8522767612409966  0.1614204671079237
  0.8274618482234612  0.4995305423476795  0.8435770336377572
  0.8239017232155015  0.5077174614591311  0.4925468293299043
  0.8488646221267313  0.4813068042886601  0.1631740521538067
  0.8319345143713343  0.1720248105788050  0.8331643481443618
  0.8271803126827799  0.1831183594537661  0.4890349629305861
  0.8604268503497938  0.1544988891667612  0.1631678983714968
  0.4984970425232690  0.8285529587862080  0.8368130552292574
  0.4875226624524488  0.8408123457683347  0.4948996389282211
  0.5157633411227583  0.8404534021238595  0.1477538376405472
  0.5143072833544805  0.4742134365849368  0.8492916302207668
  0.5001984823611569  0.5178261015239219  0.4994182965017793
  0.5085568976690892  0.5054031534856617  0.1582082332275272
  0.4885664977767781  0.1738546498942988  0.8291807457484920
  0.5031057801339304  0.1546260335966590  0.5007897802487048
  0.4848632163592916  0.1607882368718994  0.1511213330680408
  0.1635990797545381  0.8418498248833046  0.8318283296165386
  0.1545820882832088  0.8131306086675745  0.4922065899448188
  0.1964359658011344  0.8354782310678852  0.1501737011990672
  0.1702519661981791  0.4801205412921827  0.8300304535321876
  0.1861762544291748  0.4909212794397959  0.5065012189697397
  0.1540066691518163  0.5193841825252334  0.1727173134688686
  0.1544802371131672  0.1593464906960333  0.8420591546485103
  0.1683861353532539  0.1623290407245216  0.5235847664287867
  0.1767230731512162  0.1705892991560688  0.1742340588666375
  0.6664643687323725  0.8302095407898891  0.8324155300022218
  0.8327251944273460  0.6571505670004311  0.8291103011352069
  0.8035309224114501  0.8110030194047210  0.6528698218914921
  0.6729224798688207  0.8444633200361866  0.4595234877278569
  0.8522141420322144  0.6601474589853885  0.5022382267599150
  0.8461112093971173  0.8208113386986209  0.3071776796115574
  0.6825746874220150  0.8617602256055861  0.1591002280218989
  0.8391941961390668  0.6777044428282041  0.1661850431827736
  0.8494919840390693  0.8350035801218185  0.9963288916810717
  0.6687578672051359  0.5011833996936466  0.7977692497721484
  0.7944066446037956  0.3342287957713382  0.8276447292955945
  0.8358662144716686  0.4916118390770408  0.6573444313390420
  0.6544993106804662  0.5233914688859147  0.4758204441572954
  0.8196890543702249  0.3359772998982746  0.4950893130737621
  0.8642786322509184  0.4877869394881125  0.3242535146000120
  0.6617728384583960  0.4901050126047058  0.1664085327669620
  0.8484838163608919  0.3244736135779767  0.1351195152770213
  0.8322483572691429  0.4814472076903113  0.0009395801824241
  0.6769401709798550  0.1597965366342126  0.8459635675825490
  0.8430697024904127  0.0063874557687238  0.8175164133215760
  0.8494356283484410  0.1694149793555220  0.6493941494486549
  0.6665692259441017  0.1673661949431050  0.4985568884346127
  0.8204173059241185  0.9969602888969861  0.5039868321003760
  0.8374755095165469  0.1624530475351496  0.3362636126704699
  0.6560574321671878  0.1799399308906645  0.1693461945971859
  0.8520925238607725  0.0049874921173710  0.1261592236223047
  0.8258115009729100  0.1663211248137726  0.9959684216101250
  0.3293681696604530  0.8233921216402762  0.7802674070576628
  0.5025260290636748  0.6521858411802197  0.8392047713065206
  0.5217564773261142  0.8637700832963514  0.6571292918706525
  0.3302181001139032  0.8355365300581904  0.4992432780746344
  0.5033006768973529  0.6795587960594131  0.4560637260511236
  0.5050898081331578  0.8203845415070964  0.3010883298314933
  0.3427248529507269  0.8664722414969890  0.1557186639144532
  0.5236867002155394  0.6688468019303753  0.1518186638900972
  0.4864054675653189  0.8297094650063840  0.9886359312607181
  0.3561751182660634  0.4559769861071981  0.8450098932661427
  0.5064543283895748  0.3217807670216238  0.8353720985188851
  0.5112549263579136  0.4909920074509507  0.6775435740049731
  0.3332841411790280  0.5109512740630225  0.5107525513815031
  0.4989294267013645  0.3453006444665747  0.4944413845731778
  0.4879526579913582  0.5113632940799213  0.3134228577344577
  0.3420861956090174  0.5282488273989809  0.1332635426294151
  0.4614728517407197  0.3319677868400470  0.1687083874490850
  0.5390130594272193  0.4731654717487942  0.9975146645826841
  0.3245831990603488  0.1457863176140784  0.8280937934625830
  0.5150588545044961  0.9876108584404132  0.8096444302140010
  0.5114003499503967  0.1710731605328955  0.6557345694984248
  0.3272941021095321  0.1538146452534660  0.4900152361613190
  0.5069091009993638  0.9880458703746473  0.4971627733435340
  0.5108650113748388  0.1342467106138165  0.3277547535792227
  0.3305129755971578  0.1339944966312799  0.1602539306274367
  0.5152084885796123  0.0019969718400942  0.1504857627388388
  0.4996301886619128  0.1744124578723700  0.9942362514483435
  0.9921572728918524  0.8101421376478836  0.7900830137253512
  0.1946839596862388  0.6504875996897166  0.8077529518618827
  0.1556503869164908  0.8295837173231289  0.6689483595343366
  0.9795104202939520  0.8270700591911442  0.4914969211940849
  0.1654258118148194  0.6419456640185534  0.5159601896613188
  0.1625988472167077  0.8300739146666101  0.3200773028663810
  0.0736184748180967  0.9123558950208144  0.1319935153197843
  0.1524081331046282  0.6865862535157637  0.1725285907304611
  0.1601761193154349  0.7950655329300867  0.9789291088895226
  0.9890997666572094  0.4861367541792010  0.8327544738541895
  0.1673155088089007  0.3204842217684862  0.8156071213890866
  0.1600762519304801  0.4798203014921120  0.6709849375956586
  0.0090700218951555  0.4882845861470217  0.4848466663020897
  0.2103139594724241  0.3327903491563818  0.5088284822743879
  0.2268655893730528  0.5147179961178758  0.3220535981523112
  0.0056870983635544  0.5081213439086332  0.1658174052965151
  0.1845591457001795  0.3280848109305681  0.1993361466172205
  0.1641252787488033  0.4854993518851994  0.9962593643153552
  0.9869692523234880  0.2083287051905128  0.8167907528339182
  0.1567438775961043  0.9888181776455633  0.8687502137681844
  0.1743762958789796  0.1873778091902215  0.6674750954668369
  0.9839204137620781  0.1754706047891111  0.5012756861387331
  0.1518959623049051  0.9913793669139797  0.4993165161812051
  0.1434239651794029  0.1542418371777375  0.3319343458445833
  0.0194563052080132  0.1423315761281770  0.1813823855143463
  0.1754250906660259  0.1918016296910091  0.0027674300195703
