Cl O  Li
 1.0000000000000000
    11.7780000000000005    0.0000000000000000    0.0000000000000000
     0.0000000000000000   11.7780000000000005    0.0000000000000000
     0.0000000000000000    0.0000000000000000   11.7780000000000005
 Cl  O   Li 
  27  27  80
Direct
  0.6671077234915859  0.6875316991140283  0.6781016645901832
  0.6421659984497515  0.6768281259502567  0.3318446698708487
  0.6539500462338427  0.6300103525630235  0.0035690536298088
  0.6754125766021755  0.3331611650887475  0.6771397717355604
  0.6772272541316489  0.3203449822637980  0.3243626624744636
  0.6568194496629177  0.3446901952756641  0.0164425384918437
  0.6817053858098628  0.9971674106141746  0.6757433084907054
  0.6799396551409996  0.9891374139005041  0.3237825267928138
  0.6708826235992458  0.9591420165928334  0.0148539732420209
  0.3028906317027224  0.6427899365773927  0.6510530788153813
  0.3045558370987194  0.6890458534455612  0.3432522235852582
  0.3057092664277402  0.6799408466930353  0.9838706130060680
  0.3763284730433106  0.3166134825155874  0.6818586701466521
  0.3452794429421066  0.3606436330018123  0.3399335940475550
  0.3459060356316556  0.3104618256896349  0.0103465054562179
  0.3302411171794024  0.0166821989808098  0.6669500393946717
  0.3250129123113403  0.0187330734525147  0.3235726301850107
  0.3108855082721520  0.0101902711405450  0.0032624664765617
  0.9994033091816120  0.6411591437798396  0.6565358559411087
  0.0092538425808209  0.6822339403116994  0.3580740941037500
  0.9878838277000329  0.6559857510912936  0.9906279809062273
  0.0295858811351985  0.3415475153295343  0.6609427332978389
  0.9831591626483636  0.3222995976127084  0.3312480971127656
  0.9952561911175487  0.3315702909053894  0.9845792759473987
  0.9857681563297286  0.0176309328120350  0.6556216144139781
  0.0019424014816569  0.9631419953370214  0.3192046188218172
  0.0224213502021637  0.0076341880944566  0.9661982103202067
  0.8332113443397857  0.8313340938417019  0.8468990631591642
  0.8152775223013038  0.8275383437479260  0.5032022645505336
  0.8483971786935844  0.8080462382810830  0.1605639266205710
  0.8412502892779283  0.5029606990098259  0.8310676484585573
  0.8337489096128899  0.5098649998491572  0.4899077870926233
  0.8312256969241608  0.5096289699092418  0.1869072261902644
  0.8298161568918972  0.1694781466577989  0.8432110042558129
  0.8261645348574864  0.1745358269792188  0.4842464693090869
  0.8505509215312557  0.1536581792068507  0.1613921467729442
  0.5050236155978673  0.8392132023814250  0.8297372978881246
  0.5001423302075300  0.8456573460514459  0.5037555786481022
  0.4862216244287600  0.8308689974523796  0.1692141810060128
  0.4885720858733005  0.5085906406006634  0.8285873503043583
  0.5065265959562586  0.5018412369397397  0.5086144351213361
  0.4896349493402989  0.4906045518979568  0.1532790021997448
  0.5206944651626759  0.1746612710218995  0.8494870525037878
  0.5133149870669488  0.1660221096387796  0.4957414512662490
  0.5121057688430388  0.1727945494979558  0.1607876489958666
  0.1780946187362082  0.8425738152892297  0.8132242708258680
  0.1726410720764532  0.8429482243602997  0.5306914935270576
  0.1687657479094520  0.8306621979784365  0.1464474840061224
  0.1524590344962193  0.4963587836972919  0.8524564144099902
  0.1592179117430676  0.4881995970916451  0.4970431381664482
  0.1693297501552431  0.5160905627909443  0.1660913287893982
  0.1540406982488174  0.1623350729920291  0.8297282291562995
  0.1792847885747441  0.1706283169113200  0.5023810584954316
  0.1675933410445246  0.1865861877898561  0.1823625769835286
  0.6640114803106503  0.8343910661750014  0.8471424614436877
  0.8386601946919882  0.6705338997532215  0.8280454935778009
  0.8111006425584089  0.8561623382794911  0.6832350121427697
  0.6736721088291110  0.8639886538446601  0.4949939286572269
  0.6716339518368016  0.4871109444185187  0.4886064645611135
  0.8379518619597822  0.7875277467015921  0.3383733673195170
  0.6576592790065895  0.8074088359870814  0.1804084879449473
  0.7979948675962013  0.6525195927197909  0.1473630008236658
  0.8334381436062362  0.7968999571596826  0.9993453053827778
  0.6667374034469191  0.5027994456220587  0.8114087431027859
  0.9864068399970758  0.1843352192402284  0.8441479985833265
  0.8326215528878667  0.3279657534027320  0.8260105349328765
  0.8381922643239705  0.5132397421650291  0.6817663634120025
  0.8137146235362103  0.3457354071039312  0.4898824432260047
  0.8396420468537087  0.4661575180801066  0.3375202182759769
  0.6622673283652820  0.4920268043489397  0.1926830164703893
  0.8761827203854156  0.3544417945102465  0.1898802520260656
  0.8392517675019445  0.5045247718518077  0.9767559474463814
  0.6862020193204168  0.1448462463368373  0.8474491789093479
  0.8407833305597491  0.9917619963624472  0.8602519610636095
  0.8146546137840587  0.1723622260479752  0.6578755991266461
  0.6757130593147058  0.1416511681489003  0.5187108890777365
  0.9335089272605382  0.9222313038839911  0.5074186580535243
  0.8155063458382510  0.1841713545435204  0.3216708685387691
  0.6830529021941074  0.1513088209897309  0.1743546641121003
  0.8191723806785982  0.0044594266238767  0.1556778639518615
  0.8435400630929779  0.1923159056734761  0.0051495132577536
  0.3389879495102417  0.8472238075326139  0.8577698815513733
  0.5040869451536334  0.6489449739350747  0.8325136253597615
  0.5143567171499616  0.8661567285174480  0.6715068342243877
  0.3204694776669025  0.8448184883576128  0.5407998501939788
  0.5213054304839906  0.6853139083578415  0.5293556774262839
  0.4669355087276614  0.8182012746256582  0.3368253064571641
  0.3198671154951989  0.8338101815132676  0.1506484525679281
  0.5105337203753002  0.6466959689278289  0.1682327640624493
  0.5006262118270617  0.8305119161367612  0.0131375348249215
  0.3170487439253457  0.5254342715204413  0.8421353878846854
  0.5159609920040078  0.3420762952686827  0.8148885450574367
  0.4639499526574855  0.4917165646526152  0.6559969951348867
  0.3016019406191119  0.4941713569985557  0.5218341765125081
  0.5156226149477792  0.3292628654516087  0.5073679703202867
  0.4696863303910397  0.5145119961722062  0.3578508980387837
  0.3411170569759679  0.4919457525582517  0.1532174846193501
  0.4999351258794876  0.3275340372339004  0.1571552170457646
  0.5245435750267449  0.4936864227583657  0.9937093482293501
  0.1585742949386412  0.1356251780353830  0.9993617728966483
  0.5014261225565384  0.9963306240020932  0.8518899425541929
  0.5290987504400636  0.1301775118814210  0.6921942714195333
  0.1581861309495461  0.0028799376968935  0.5128798159703468
  0.5017676979601520  0.0024185115630156  0.4571604750155061
  0.5100877735848767  0.1682558921318903  0.3298077679262472
  0.3398541955838954  0.1795639934367969  0.1554033829938612
  0.5192241970155115  0.9722815310835448  0.1735109076836650
  0.5306495035821770  0.1781690686375195  0.9995045269090339
  0.0348511352140265  0.8446090978174338  0.8543090267685717
  0.1649671942010382  0.6632996023375178  0.8347080965198260
  0.1765130966825448  0.7824165446682394  0.6738538139236738
  0.8339172481903082  0.6605052588584605  0.5188921422580114
  0.1488207321616769  0.6724868349576197  0.5005687696051442
  0.1445022040907753  0.8551740084521813  0.3747122210827029
  0.9961748310049178  0.8626576555076686  0.1486226031402386
  0.1232821003571276  0.6917523840704717  0.1915904164697944
  0.1505807341450345  0.8393744962546023  0.9919577235629262
  0.0081395076083522  0.4805230775432318  0.8367660508775931
  0.1655747789906233  0.1802102620355739  0.6558273207818530
  0.1455622133363733  0.4939140722184248  0.6928695680572329
  0.9983927226583371  0.4870344269937434  0.5103792346257707
  0.1853418512403858  0.3274137145955764  0.4793303259807963
  0.2009503127884861  0.5190847017680263  0.3464023933322259
  0.0255666971246730  0.5090961009436898  0.2013195463018634
  0.1898904072891802  0.3309842848392991  0.1501123042841716
  0.1842642915695814  0.5162419782240978  0.0036550095320673
  0.1656633711889115  0.3143453076667378  0.8222058780489151
  0.3170858285608453  0.1465554087666702  0.8360287305918744
  0.1475776580137096  0.9931140578665414  0.8035419421276827
  0.9876798204542062  0.1712879456953754  0.4928904686986939
  0.3513531451112311  0.1820177938901941  0.4961724184549969
  0.2173719035524066  0.1714362235092588  0.3288774739340780
  0.0048061657359374  0.1480612028610520  0.2128317143155425
  0.1585299937788208  0.9901674917764701  0.1722201316014430
