Cl O  Li
 1.0000000000000000
    11.7780000000000005    0.0000000000000000    0.0000000000000000
     0.0000000000000000   11.7780000000000005    0.0000000000000000
     0.0000000000000000    0.0000000000000000   11.7780000000000005
 Cl  O   Li 
  27  27  80
Direct
  0.6611905929140481  0.6692674485815857  0.6666456066464201
  0.6457444373743734  0.6832539836369085  0.3430767368676466
  0.6792614580651567  0.6521905812151777  0.0164643801925888
  0.6692722499596713  0.3459925838497531  0.6841827121529582
  0.6467466941827005  0.3264482926895051  0.3268739090163046
  0.6685412049124925  0.3433128950516289  0.9823170320331901
  0.6768048843611789  0.9728907512417863  0.6463629830652051
  0.6730624535522863  0.9994468571499755  0.3315399132393176
  0.6540599786331857  0.0152594918391954  0.0191946289418753
  0.3538895705549707  0.6941648016141323  0.6624991719317956
  0.3380855442341840  0.6547319718529673  0.2986120362338946
  0.3277898818182030  0.6626222138804223  0.0131563515064430
  0.3437466393479657  0.3498854989273706  0.6544509153493681
  0.3454592126735856  0.2986553016822462  0.3447600392418841
  0.3275987501979044  0.3323186366445310  0.9829119183209155
  0.3207838209010024  0.9973029416711275  0.6869111048992330
  0.3518096731050193  0.9674496437242336  0.3147791357109697
  0.3506242603021505  0.0179301435347209  0.9848312772036187
  0.9832646720166712  0.6613265593063031  0.7220229673435481
  0.9999278616784190  0.6552020074623015  0.3290692910980929
  0.0136125239167060  0.6604976610233135  0.0189337131265410
  0.9959973910061191  0.3388330022580827  0.6580551694541560
  0.0192040764827427  0.3239574076006083  0.3345203883905468
  0.9949131638943661  0.3365274998612739  0.0000063969592543
  0.9812592765771818  0.9781889351409192  0.6750305803832691
  0.9989718325660990  0.0132906952102865  0.3426003045635428
  0.9946238222605819  0.0128536779830916  0.9829245485036459
  0.8459066927274541  0.8209660771773845  0.8345443910565054
  0.8302384342288814  0.8027173596204358  0.4744466694857254
  0.8290597420040616  0.8433677880853671  0.1573013261819640
  0.8181568591671848  0.4891055930170698  0.8419273104120768
  0.8400242436348579  0.4972086263591382  0.4854331142087060
  0.8295321257671722  0.4850062833196085  0.1690244029386945
  0.8108210648287767  0.1715771464004551  0.8349707833939305
  0.8227833698728072  0.1617569547600919  0.5039541366328711
  0.8169870737325509  0.1786301501504741  0.1689137967987547
  0.5197473639940510  0.8459195025026898  0.8263371887546768
  0.5091941536427745  0.8297308445448247  0.4927301640098076
  0.4961425076736486  0.8202630885192900  0.1429093904742667
  0.5017171866799262  0.5077300961490264  0.8435774957209884
  0.5056537045440427  0.5180676407215841  0.5035957597841350
  0.4863916371764450  0.4864057019993886  0.1692343501532599
  0.4956901641884556  0.1857881730538621  0.8285457488373985
  0.5151554683139223  0.1603127389742198  0.4956373808117610
  0.4877656715041964  0.1651467070416967  0.1541368043571747
  0.1518350271415729  0.8489942884163604  0.8597687447450892
  0.1723401787784904  0.8203864880487688  0.5292833070477742
  0.1646100970327345  0.8321034515085992  0.1804269668263296
  0.1726978876179626  0.5140489779607114  0.8249997127520956
  0.1741927506516622  0.5179618928308364  0.5030513524767519
  0.1747616111466454  0.4896493930433039  0.1527400678358029
  0.1736416025235251  0.1831934024030746  0.8308738218502454
  0.1766260654876328  0.1857124248518755  0.5151899309956356
  0.1620813884496068  0.1744477239064182  0.1537126690813532
  0.6843788948516393  0.8821738632153434  0.8606927837414238
  0.8253746790210456  0.6759863262434190  0.8442685006977426
  0.8197636441166470  0.8085500116588130  0.6644880581802153
  0.6527836355996049  0.7959757291582193  0.5170785753690584
  0.8217084822390585  0.6475612365308600  0.4684651121096108
  0.8329448838829718  0.8117428530278512  0.3135447153193759
  0.6738649958334088  0.8565592301749952  0.1569026764716960
  0.8425374159419234  0.6731920637351816  0.1650428450560263
  0.8525027376555478  0.8314911501687567  0.0050888972486923
  0.6591979820079147  0.5054798765794825  0.8164399635005614
  0.8154580207701621  0.3287914262748477  0.8520230761165085
  0.8274644549110207  0.5290742471787120  0.6652335565187406
  0.6768618068475463  0.5116565331460693  0.4786138732156461
  0.8505442964353984  0.3106293474951578  0.5257510360018490
  0.8338591254101023  0.4461356339607876  0.3352224661269180
  0.6673910144162662  0.4800709094215994  0.1517589950182237
  0.8400103166538408  0.3457384569315971  0.1554551510035618
  0.8089779260561194  0.5136600751128851  0.9896846763701104
  0.6562502393106172  0.1320781533581053  0.8448433935188060
  0.8792261041323495  0.0286731381012466  0.8216301930541053
  0.8061731778267089  0.1365673173105264  0.6407231225489337
  0.6758572423708530  0.1763492628829052  0.4820956184699736
  0.8146815915784470  0.9770126897530625  0.5012419380505699
  0.8691551964696173  0.1714998192674810  0.3484572073624707
  0.6633544571042027  0.1880950924400186  0.1811588418244122
  0.8013372765809079  0.0138337361350842  0.1788505459343180
  0.9888323354175963  0.2073488602985799  0.8088749308926666
  0.3347485140776657  0.8274437427668311  0.8479774500726197
  0.5205161009578786  0.6733465965448998  0.8539495338628100
  0.5242738352517263  0.8379213668577605  0.6729996702793379
  0.3463890005981308  0.8360496453856899  0.5224691267309561
  0.4984262086772079  0.6732082174137453  0.4991405023625336
  0.5204729030254789  0.8282736936704788  0.3298814284213697
  0.3443751753371918  0.8186402713474937  0.1972957999137915
  0.4884748544300109  0.6639284351465341  0.1670501218019085
  0.5152364391337904  0.8614179651919994  0.9849984503174198
  0.3386607609385268  0.4927449479722705  0.8373602322882377
  0.4998497566613087  0.3578402746982605  0.8373892198417505
  0.5028657577597549  0.5027309577303711  0.6820191718460831
  0.3287900536279184  0.5024531468474036  0.5301862936309431
  0.4811682905575750  0.3589844328684064  0.4780578465956121
  0.5097640262730062  0.5241596827814088  0.3312721629807189
  0.3182163576592154  0.4946186532294278  0.1871744474302815
  0.5133876324037424  0.3342713491791747  0.1374770176839073
  0.4914801673802346  0.5151644319752142  0.9991994311331217
  0.3431196822897273  0.2018750102057431  0.8126377357411962
  0.4784124891887749  0.0167266173064139  0.8135331110672973
  0.5324555722307065  0.2183587460739123  0.6468651640900270
  0.3540703379103261  0.1846031448623878  0.5042457530406261
  0.5373349143213670  0.9824723585659010  0.5069711498665657
  0.4840137266239692  0.1237875814758700  0.3359371348257786
  0.1435794548962256  0.3335103651713494  0.1792264529655555
  0.5039824668219657  0.0062988857899672  0.1755951748496367
  0.4943878295216974  0.1809470289474744  0.9989387258893629
  0.9993606576060281  0.8443417051067403  0.8365187835281687
  0.1410899564326191  0.6860612419617348  0.8458496988681263
  0.2085525156356324  0.8218964318976687  0.6892864648708831
  0.0236641023265328  0.8431075478703111  0.5168810065685804
  0.1680769132921487  0.6643098077081128  0.5467418303736304
  0.1716090527604916  0.8123138592495609  0.3669528454346071
  0.0408245594127640  0.8852829807566378  0.1625740245155436
  0.1718696573442370  0.6522906206631247  0.1819990355367734
  0.1859055036288595  0.8438081074038098  0.0115629305377662
  0.9963052996284497  0.5335414073108340  0.8751204883087976
  0.1448302010293754  0.3442491606417636  0.8527237975916468
  0.1165040981441050  0.5013745750413509  0.6704624496387717
  0.9929785489705476  0.5253588201382451  0.4841229658578305
  0.1835878758517754  0.3480121985243128  0.5187634161888734
  0.2126783230338956  0.4855094359942688  0.3646310476602997
  0.9986635527747951  0.5106484464387118  0.1335612688350869
  0.3426178251481848  0.1500894037430859  0.1608857323145317
  0.1965852713715898  0.5110169041545214  0.9892053904771909
  0.1811763624090543  0.0218648028654876  0.8405043292237151
  0.1701642296934706  0.1615077771833003  0.0062969411528018
  0.1934603240350110  0.1711945592765784  0.6698426584980914
  0.1673361315038807  0.1509934935536754  0.3524008101733256
  0.0209055112599544  0.1365687545425791  0.5373507537145105
  0.1943482095602744  0.0180380801679432  0.1939202074043112
  0.8033365779439453  0.1464204640745760  0.9826228107434076
  0.9815902207651805  0.1786696436678648  0.1683075986344598
