Cl O  Li
 1.0000000000000000
    11.7780000000000005    0.0000000000000000    0.0000000000000000
     0.0000000000000000   11.7780000000000005    0.0000000000000000
     0.0000000000000000    0.0000000000000000   11.7780000000000005
 Cl  O   Li 
  27  27  80
Direct
  0.6946046731520508  0.6574189294427090  0.6632419581014878
  0.6430594184468197  0.6598895920693436  0.3319829251911532
  0.6562824796416064  0.6546206183934780  0.9883973817541906
  0.6543880458545627  0.3685064612464923  0.6706983179906797
  0.6814040003889577  0.3108431728482588  0.3453373615411758
  0.6691291884656462  0.3556509266030868  0.0188647984562821
  0.6794364904369833  0.9793934093762180  0.6551545521276539
  0.6662607971718193  0.9757597337649296  0.3548604206366807
  0.6882844148364279  0.0131820593339391  0.9987324004167192
  0.3321142840968742  0.6533414413812021  0.6648368403404294
  0.3391840285639010  0.6866380595003044  0.3123906993055434
  0.3107047288874401  0.6702178249976167  0.0034144526766792
  0.3381882291784583  0.3187097106681975  0.6648314557809081
  0.3600537715599794  0.3154758980643060  0.3240472990191621
  0.3372017414373006  0.3374758924922181  0.0019567388021014
  0.3219069001172543  0.9940601296824899  0.6582549653058127
  0.3426866642897544  0.0075385019936731  0.3330061534418262
  0.3135783023137384  0.9831831334697589  0.0051816952225697
  0.0090415598539196  0.6678580114233814  0.6529519029147827
  0.9982744049864314  0.6692177139160161  0.3072093765421849
  0.0104040368623039  0.6703327225910094  0.0011802322769275
  0.9912630328895151  0.3351693172320461  0.6650400366128882
  0.0130024973786562  0.3418108677609054  0.3478190361993126
  0.0013879728389690  0.3463052745739130  0.0416113096838133
  0.9884245843518418  0.0274150860121381  0.6690030724205117
  0.9865227948718808  0.0069896963260515  0.3332225479579237
  0.9820571111920523  0.9855736160071884  0.0011371605451417
  0.8361623138405215  0.8327602682171985  0.8298395819217028
  0.8212396346512939  0.8083104813914727  0.4940401507726755
  0.8244557146456342  0.8218670209078862  0.1707106914655470
  0.8383547607300895  0.5137771403362437  0.8398320288599829
  0.8279071768133311  0.4900775076711858  0.5151720367980770
  0.8274179511196882  0.5154239653561308  0.1656582944901235
  0.8387684406487955  0.1760150574844341  0.8499481182402013
  0.8401943367866724  0.1720880941770620  0.5205684585444150
  0.8251266388590611  0.1529731507891645  0.1760459397574747
  0.4985646422384541  0.8479206777335589  0.8423894112346964
  0.5037985150639069  0.8118565984475953  0.5103962968714378
  0.5049662762280444  0.8330895765416020  0.1499378199340881
  0.4936906442219049  0.4944670977578742  0.8237217506557502
  0.5036605003014418  0.4932923326178181  0.4835415552394001
  0.4919098124951363  0.5096107867999317  0.1505959507579759
  0.5072658070268879  0.1683431431514009  0.8349171810648103
  0.5279730415874911  0.1509217550678067  0.4921268507846028
  0.4989891317616125  0.1629968220998562  0.1700388968158065
  0.1677205341731810  0.8136794945152855  0.8146494561144509
  0.1480079755278947  0.8530498552889222  0.4837351564697048
  0.1608068204760401  0.8389277345957304  0.1630850317133634
  0.1543962594535593  0.4905815915102745  0.8502620421088301
  0.1799928461224292  0.5311453002271270  0.4868741117581206
  0.1822371953075326  0.5161120553833696  0.1850549556030469
  0.1448672591241467  0.1703542862539318  0.8293877647468390
  0.1781764074776236  0.1767083296441446  0.4875695701299677
  0.1645032092524853  0.1610720748621246  0.1655358058823680
  0.6560901334590096  0.8692999700990671  0.8291882526466838
  0.8063173603161656  0.6764703917078297  0.8319366451854661
  0.8405088274510401  0.8083341248708742  0.6698658569916160
  0.6620675613233110  0.8273733605421951  0.5478388638802454
  0.8448806849281775  0.6356636490751433  0.5176571122306483
  0.8262455746188181  0.7998110554007402  0.3304278805955868
  0.6728653440359991  0.8366647621220572  0.1690300914924226
  0.8454370354314911  0.6773395324882938  0.1408124591417179
  0.8155345926250287  0.8573936968623851  0.9837159968709098
  0.6676850334078889  0.4785278299252028  0.8441382190022070
  0.8479796001461685  0.3340199566867236  0.8068292943315916
  0.8459001075503166  0.4999587816737870  0.6873865659071307
  0.6731812516897143  0.4800721863725467  0.4982112006165400
  0.8466048775664482  0.3351790944585451  0.4853991877888137
  0.8070904697042662  0.5139352763474462  0.3414959439049944
  0.6635494487831268  0.5069759963214243  0.1459559482894930
  0.8326808114986538  0.3661588742660570  0.1801619901719437
  0.8704605814868019  0.5010200257243879  0.0084589663836871
  0.6784321283873395  0.1774716010776310  0.8767928599759852
  0.8556838117149768  0.0107351806204716  0.8263496586145685
  0.7983508842618050  0.1493703237950769  0.6824215162036400
  0.6750469813211146  0.1584823750089313  0.4908147186486406
  0.8458063433409092  0.9864227076535516  0.5085704453688226
  0.8603264356137529  0.1716994747271051  0.3320876407039476
  0.6689476518875019  0.1894267402041034  0.1490885878539592
  0.8088456741665466  0.0043561058603980  0.1905154455106056
  0.8681602004943499  0.1818280133708785  0.9973023156203755
  0.3427907927641048  0.8552378487833975  0.8564959855304736
  0.4926910189652236  0.6566309619091628  0.8079861244350470
  0.4607770990515985  0.8198120624704540  0.6787517162201688
  0.2948356222701844  0.8177826098412805  0.5166300783514415
  0.5345179534428380  0.6683308000405910  0.5006120663964484
  0.4921675426147765  0.8099842292089660  0.3273236617888943
  0.3305179443831750  0.8054916442394052  0.1276908948696359
  0.4960348304279057  0.6711647787359738  0.1483527655284081
  0.5231650347891345  0.8421342600333261  0.9886647992733264
  0.3113194391091736  0.4832332871801965  0.8439655082434285
  0.4899544481661421  0.3474639265208153  0.8081854745935620
  0.4757364580222263  0.5080876042219832  0.6637208195301877
  0.3496520171272662  0.5453498492149447  0.5015612063469420
  0.5110295331614061  0.3243522027361145  0.4927688684153367
  0.4806914673440535  0.5122148083668890  0.3170499424650974
  0.3390416008917530  0.4801822662021574  0.1607679302466085
  0.4967233253092441  0.3269675197324436  0.1752574661563042
  0.4752765842507856  0.5110746582523267  0.9931642515805471
  0.3243851132728418  0.1716220666233113  0.8503587212677524
  0.5084971707700319  0.0052383727698640  0.8475601268206521
  0.5164195582129744  0.1659187249842633  0.6764191898122290
  0.3284579657549111  0.1639307901429771  0.4993648323726105
  0.4894056684344861  0.9789364113340515  0.4913061305544200
  0.4985199463458869  0.1460689207993006  0.3250863165797094
  0.3291539301943822  0.1298618925866780  0.1628717849378883
  0.5009594352068724  0.9832651695619760  0.1726866628681977
  0.4992607483768600  0.1729821739700453  0.0097993636616287
  0.9945619061797550  0.8591748119870233  0.8393158398833237
  0.1692940198729725  0.6748786268454532  0.8127093952704117
  0.1537013476347464  0.8938712131545952  0.6827649134507006
  0.9977556809272675  0.8432642078245852  0.4693621072057416
  0.1458102452923303  0.6862573347052847  0.4952245919257059
  0.2201904047918384  0.8443913216371490  0.3354296708085928
  0.9888986267515905  0.8290331813786708  0.1630867321005806
  0.1790243743886920  0.6894185164837546  0.1557560895305864
  0.1527119753081309  0.8518399083276335  0.9725252349356827
  0.0022225024685196  0.5247633826321746  0.8348925659355704
  0.1497986249665724  0.3267798698573993  0.8333192219347135
  0.1603878673326901  0.4724038853623500  0.6710342254369025
  0.0081036729496341  0.5003411663706139  0.4848106513846026
  0.1890289062218374  0.3492907901586790  0.4775744511546319
  0.1809435447612053  0.5297966907368142  0.3184283694598267
  0.0093099711633525  0.5207783227615472  0.1625467883096428
  0.1656214162748635  0.3442450530331896  0.1784710158125236
  0.1714952419751437  0.4927999490622003  0.0253765186013284
  0.0132521063780973  0.1427124070392516  0.8299781229944969
  0.1699677072156274  0.1629974395023577  0.9991657604298324
  0.1289729604605596  0.1653677185550610  0.6811406388041467
  0.0292883494192513  0.1852848600980965  0.4926213395815372
  0.1525538291755760  0.0143519586337887  0.4960942590164990
  0.1925762985683729  0.1711504520829896  0.3207923935166951
  0.9938006729336250  0.1455729947703136  0.1650199509103410
  0.1412551609711841  0.0195656570734038  0.1854382917070074
