Cl O  Li
 1.0000000000000000
    11.7780000000000005    0.0000000000000000    0.0000000000000000
     0.0000000000000000   11.7780000000000005    0.0000000000000000
     0.0000000000000000    0.0000000000000000   11.7780000000000005
 Cl  O   Li 
  27  27  80
Direct
  0.6878311387356693  0.6788558466625600  0.6724320121510966
  0.6742595386467604  0.6774249708192613  0.3423702947541514
  0.6567234047900607  0.6732786980462765  0.9829522118812868
  0.6501797479824218  0.3019056885953417  0.6720657811328332
  0.6756791595460975  0.3372407673473278  0.3272511196278090
  0.6511082403738492  0.2902649591624170  0.0058964282312623
  0.6436475485457942  0.9976181316196211  0.6678665534436549
  0.6744714392823552  0.0116312241549837  0.3413503458216831
  0.6772523416053146  0.9911751705663793  0.0067716535260301
  0.3190357543644149  0.6516759667033423  0.6547151514244514
  0.3607182571420897  0.6579139586659790  0.3239121056862039
  0.3556949489337038  0.7000357078987332  0.0015355399280251
  0.3291044960577156  0.3387788687988370  0.6387699727219296
  0.3523469269883884  0.3340115093520540  0.3335432203408226
  0.3442468490812454  0.3483008550309785  0.9817171386624579
  0.3362995833538982  0.9990081896298152  0.6711884622995626
  0.3247852088853777  0.9976937741799912  0.3456529732478331
  0.3496738373120835  0.0162192863728593  0.0030659385558559
  0.9859629485204852  0.6763173304888759  0.6796476053074108
  0.0382104163351769  0.6547344774822191  0.3442936351238878
  0.9949360405231709  0.6414048991738960  0.0247793589073034
  0.9879455190449551  0.3442912610019310  0.6716488218959227
  0.0088725969725144  0.3373760493446224  0.3627494760380591
  0.9800538916573790  0.3446806091892666  0.9960793283477906
  0.0125134372361921  0.0291133492096623  0.6486012067578523
  0.9845257569532367  0.9690192079944500  0.3138482627275052
  0.0144431338152882  0.9984497901852083  0.0125062853262809
  0.8417045220968951  0.8304133026339189  0.8424383050607080
  0.8156635776899415  0.8376004345470495  0.5009747626348590
  0.8234988000452963  0.8258352934493973  0.1576412092455091
  0.8061521783924979  0.4988166618901444  0.8448054869795514
  0.8235311883732434  0.5009200003924477  0.5128770278159576
  0.8323474531821197  0.4938831503209922  0.1610677830074490
  0.8497814423495558  0.1561132841491227  0.8386900848381947
  0.8279252318550246  0.1656619907518207  0.5128581616149283
  0.8348421641422552  0.1774828296521894  0.1748872347759739
  0.4962591991186230  0.8430369773346319  0.8013663425075437
  0.4916356033625159  0.8193298548687363  0.4958455041086758
  0.5069303434690373  0.8295686960118748  0.1597598613541198
  0.5003515453255757  0.5129239649233005  0.8208807959206701
  0.5164490301402693  0.5051408472905308  0.4867421572579571
  0.4949224923388308  0.4956215128527400  0.1573891673259647
  0.4829465841970622  0.1747788900935147  0.8291930983466876
  0.4944423353770130  0.1908986013982621  0.4957178131257438
  0.5029804249342326  0.1749504470181102  0.1656167135462852
  0.1733613952522112  0.8218823789942575  0.8311225520133240
  0.1573555896483132  0.8527082940013152  0.5062076233250635
  0.1634048993579525  0.8326833195689204  0.1688557184040007
  0.1670908327772823  0.4873352425453101  0.8307078194739597
  0.1527339574345879  0.4896581739110956  0.4996027525776044
  0.1682029872308754  0.4757804636376756  0.1736117216932970
  0.1583942529615235  0.1803584678343944  0.8389376936053515
  0.1675310002754377  0.1585704246488395  0.5064551511214002
  0.1790388059861964  0.1696259476025201  0.1585365744502578
  0.6691166365374294  0.8583953605055696  0.8522801462740335
  0.8450855396513066  0.6523838945814487  0.8560736291848531
  0.8561351416137843  0.8192337425055529  0.6591510163346944
  0.6511060136763027  0.8146230211098047  0.5333641027173395
  0.8398524765340525  0.6791698515020085  0.4737999028664729
  0.7931246212422827  0.8403467218445150  0.3164394099341036
  0.6643025974129925  0.8187906701792348  0.1408591667555933
  0.8404713365103040  0.6719581044596381  0.1580413265518872
  0.8472009023203600  0.8122733288880528  0.0137532625207996
  0.6623091767986602  0.4721127284101110  0.8261445469786542
  0.8429522824310620  0.3189644792262140  0.8133424125909520
  0.8205882229543181  0.5090316166414219  0.6672197180491386
  0.6781336684941687  0.5092342056327318  0.4902165746530865
  0.8120955175416347  0.3285739341865181  0.4955236855851100
  0.8321523944770575  0.4648790382755564  0.3449379604229880
  0.6498315734569892  0.4969808914620953  0.1685730290291362
  0.8352712285167362  0.3240877256690221  0.1511087264110120
  0.8324410554498873  0.4891379363934432  0.9919870466644601
  0.6628262564543379  0.1422313735144220  0.8454650752781969
  0.8788247847572178  0.9873401603789045  0.8109761213511271
  0.8558887474089256  0.1664640269653190  0.6654978735646440
  0.6437453612961950  0.1623192926379118  0.5139349115775341
  0.8210372871213066  0.0071895508535842  0.5132029758513365
  0.8267741506797800  0.1545421972098699  0.3205839620771662
  0.6651439247168318  0.1570172221394250  0.1458476777541409
  0.8375733098964058  0.9890380235838585  0.1849538712279581
  0.8381111180819694  0.1701577234620037  0.0241909237166171
  0.3464640325562830  0.8106713212169628  0.8118888244326801
  0.5340463374513792  0.6533110509543483  0.8081611707984132
  0.5018746874181141  0.7887745443416778  0.6400057493747563
  0.3246236720997409  0.8112641085892170  0.5021817946466326
  0.5092374450395385  0.6667545956916356  0.4806595482986470
  0.4966691138942052  0.8208185843628308  0.3140983613473727
  0.3305842580335097  0.8383740297600689  0.1562843913383321
  0.4950312361499137  0.6755328042151740  0.1753948408457270
  0.5095896276205547  0.8509251546061805  0.9770824701467337
  0.3363148868388533  0.5221744357537192  0.8375293681353858
  0.4809476575669790  0.3327461176218606  0.8336622017784865
  0.4971341697981175  0.5100014041509818  0.6745826376122028
  0.3075832618449786  0.5287974439648289  0.4833590749476389
  0.5028018437910137  0.3596243003062501  0.4944573808582673
  0.5010376110823179  0.5227964131065359  0.3203450171877355
  0.3282614683666591  0.4779857039167826  0.1701738322592806
  0.5269683137180209  0.3334567175370229  0.1757934804346424
  0.5083208553586318  0.4982939142770761  0.9945827997190230
  0.2948235359241820  0.1701666707375991  0.8379879868591188
  0.4571914262988332  0.0059376217873630  0.8094747604091332
  0.4981209611798498  0.1702480868969765  0.6861787116379701
  0.3321483916036064  0.1746604702694577  0.5039368776526830
  0.5057473193053547  0.9829033111671325  0.4967287338117967
  0.4973573658630838  0.1715914130412929  0.3133762230903793
  0.3494168359298222  0.1497103242623571  0.1411691028113434
  0.4892225514742173  0.0008688590594120  0.1775201021975094
  0.4951387653986985  0.1301664379562085  0.9845608148786889
  0.0069029792488853  0.8107483244666576  0.8632643238140578
  0.1692255980790468  0.6474993298729068  0.8340868127578746
  0.1815876864248236  0.8880428262002674  0.6902669283331094
  0.9897960653824611  0.8597181807897545  0.4934788889855715
  0.1286964234168679  0.6777492589528330  0.5378270928522383
  0.1519074680334894  0.8445664351511203  0.3473512147383363
  0.9851024640267327  0.8353905789312096  0.1642251996427948
  0.1831100390518684  0.6604552683329487  0.1852640501961678
  0.1755504008819347  0.8578420868934112  0.9927454054464849
  0.0111334996296047  0.4921992001801958  0.8586035624516314
  0.1628725971881397  0.3324665658662661  0.8538189157348065
  0.1835595890437760  0.5138164657852963  0.6735873847797942
  0.0033142365912168  0.5071183571387590  0.4847596677043071
  0.1474768662265379  0.3218080934491612  0.5208928960704379
  0.1904018662350884  0.4686693228389912  0.3343757623107063
  0.9945361914326335  0.4855886209899358  0.1757748773887778
  0.2141595752206968  0.3073174745547496  0.1554312726588496
  0.1460831155041486  0.5006127161310483  0.0200341019640064
  0.0000567242079007  0.1500774155955815  0.8709286167686709
  0.1672621872748281  0.1732880958435136  0.9939131707958014
  0.1856301748494425  0.1441504325520579  0.6664744221376629
  0.9918517544550255  0.1474425441462543  0.5006684500232981
  0.1488264170026317  0.9934883525393851  0.4890032674027733
  0.1772024687624082  0.1505026237347662  0.3247944244676014
  0.0121028304131339  0.1810011939598022  0.1387495530147504
  0.1928669823605622  0.9885351226778414  0.1834743926500335
