Cl O  Li
 1.0000000000000000
    11.7780000000000005    0.0000000000000000    0.0000000000000000
     0.0000000000000000   11.7780000000000005    0.0000000000000000
     0.0000000000000000    0.0000000000000000   11.7780000000000005
 Cl  O   Li 
  27  27  80
Direct
  0.6675876675564941  0.6438806253351174  0.6519103307816840
  0.6679393238271812  0.6582120151122585  0.3420768245750024
  0.6705888105094947  0.6481885968353788  0.9956717842003073
  0.6882958737669359  0.3527008527263648  0.6621132208808012
  0.6760074587458865  0.3284874399665388  0.3402247385267499
  0.6742500680714697  0.3423076407151477  0.9937881125738762
  0.6675936998825744  0.9884619405667161  0.6941000145323075
  0.6729944940531852  0.9936101646096999  0.3481346159780229
  0.6785391733707018  0.0058070547705788  0.9937395421010616
  0.3442104152229385  0.6678643036362727  0.6811832254636719
  0.3124250769712639  0.6743553698964072  0.3277898877779691
  0.3148180683389402  0.6832041849748703  0.9787813375972014
  0.3224045483356601  0.3632886376177248  0.6557758372367762
  0.3325002330692720  0.3003575698632187  0.3452576417772902
  0.3265938166139948  0.3521403322258280  0.9919728524340505
  0.3355868609653481  0.0115144164843164  0.6598810173186780
  0.3501636732975093  0.9836752784355779  0.3228162754102772
  0.3314998588325068  0.9934690312055008  0.0184317334210137
  0.0178626952254216  0.6658207215990322  0.6564807287091379
  0.9618496629855671  0.6702116477042483  0.3240582665735287
  0.0281415384839132  0.6289039790944478  0.0008595167845642
  0.0000405515576584  0.3229480844804287  0.6651894642692293
  0.9951313584356015  0.3091748468073434  0.3120650306763085
  0.0199199689222343  0.3456491040240537  0.9952564899258801
  0.9896220330023100  0.0098154899047670  0.6725986181704381
  0.9959442991412318  0.0091940901016264  0.3650325783179323
  0.0001096032198081  0.0235074588106704  0.0007440443299795
  0.8300701113985539  0.8386313983693645  0.8411558168022806
  0.8310069437844274  0.8201203353560433  0.5003914574059923
  0.8316998920608585  0.8305104299906954  0.1812029672831471
  0.8344565436232673  0.5026326980326420  0.8264081155547879
  0.8338025423111928  0.4830013227556260  0.4835696076367589
  0.8038334605199792  0.5069656085454227  0.1679977095473790
  0.8256838411154800  0.1542962410815130  0.8318091931232685
  0.8363836491361277  0.1579403125869710  0.5034686319588489
  0.8452100352974874  0.1676835920698120  0.1681477079911846
  0.4802057654405715  0.8515943408053249  0.8493387278581488
  0.5112586011703093  0.8270772672282888  0.4898678418893777
  0.5052850599053615  0.8222961022567183  0.1531025604369065
  0.5008360777223001  0.5145069068246563  0.8140364220455042
  0.5008101670599422  0.4863932308853098  0.4838140990273506
  0.4823689008933472  0.4943300716195990  0.1649508282025055
  0.4847006175930884  0.1926307725206349  0.8022129009867274
  0.5052113359738717  0.1546069159959943  0.5218538663180952
  0.5218878836068519  0.1481455761481038  0.1838897612707148
  0.1591159488896415  0.8578761379815106  0.8254460202731155
  0.1892783586346426  0.8406797171995675  0.5057498633524022
  0.1451007096786754  0.8344098227339024  0.1782385648396618
  0.1748616053706558  0.5224030192365519  0.8236176991604941
  0.1706071758250322  0.4983656167964141  0.4965495944303016
  0.1461779353448479  0.5107125332348181  0.1771536773096594
  0.1679240558884161  0.1807610373664184  0.8284033984979773
  0.1759722618640812  0.1721839806021373  0.5094310397360647
  0.1636296874858926  0.1524941342718240  0.1922581967176057
  0.6692501604300256  0.8732309584363740  0.8559278092957336
  0.8419475590233627  0.6763570090489560  0.7944946004952622
  0.8012182649798799  0.8643710503555888  0.6587913120248933
  0.6645956743061388  0.8325495991182531  0.5011574413619444
  0.8032213211217765  0.6386850921928721  0.4999951862135580
  0.6832782740013507  0.8319672569817619  0.2036012166885804
  0.8642151012828239  0.8433786365674102  0.3628927624612786
  0.8120304604985046  0.6684423948047208  0.1712065527746935
  0.8017303244447258  0.8188762187087701  0.0325261038960339
  0.6657849737083611  0.5008794773554485  0.8251195459274074
  0.8206246223484825  0.3315428536115559  0.8491845594171201
  0.8204554743057781  0.4801255631171913  0.6562393546951111
  0.6796791210582145  0.4828849676874755  0.4524098904247951
  0.8456138367761695  0.3173262804569879  0.4645608574791184
  0.8257783340622662  0.5044564442939408  0.3262869276622827
  0.6645469298725782  0.4802465740074841  0.1568510235718794
  0.8589834146695075  0.3157256290471308  0.1298912931505304
  0.8170820680084342  0.5315660010961033  0.9852332747086348
  0.6518609481259766  0.1771215204695780  0.8549634468311048
  0.8492831914201313  0.0126089699059406  0.8475978552309852
  0.8284329623916412  0.1776109081048606  0.6621245163101729
  0.6689402851023905  0.1702135759433525  0.4760303336280221
  0.8259933925598356  0.0090241741013023  0.4525515083887444
  0.8414541228470866  0.1799810049732193  0.3328698958029677
  0.8368788666704408  0.0249701410041487  0.1719029423109690
  0.8611095464576035  0.1824500481834566  0.9804631571933001
  0.0148207452666334  0.1622378793368792  0.1710540847208820
  0.3183892863492219  0.8378178845421499  0.8623209413492380
  0.4669699108562457  0.6584614052374520  0.8506204959366607
  0.4955652822029873  0.8323524351718743  0.6805644464582402
  0.3497693858901616  0.8597134468551371  0.5079321888894869
  0.5024477614063642  0.6658259037315036  0.4957199674099333
  0.4797105883916681  0.8022188206746887  0.3243160776639887
  0.3136145990432409  0.8590018752901364  0.1529583109213115
  0.4657670488416954  0.6456652626904198  0.1222186804441758
  0.4967006145537676  0.8320369728576683  0.9977911685255118
  0.3285273795497396  0.5212999132720789  0.8039664050617905
  0.5150917597828643  0.3510673069209361  0.7899537569170603
  0.5194761272516711  0.4973248988486496  0.6694045217536921
  0.3357539847375559  0.4911046394955638  0.4668608741028812
  0.4994243919633100  0.3035458363809343  0.4912734953222876
  0.5235998901367326  0.4793850039986778  0.3223802677879926
  0.3267051312486084  0.4529850349764292  0.1870561656670660
  0.5249131963495830  0.3159398980792066  0.1735678238236865
  0.4915347167315940  0.4574283087166902  0.9823853753580799
  0.3205135558084609  0.2006723894958333  0.8303110710140691
  0.4768206183743466  0.0351031102699716  0.8209634756852184
  0.5353547479402613  0.1523236805746492  0.6623181175404773
  0.3273893144337888  0.1760772398057394  0.5593074453584049
  0.5121516688280443  0.9797483024765153  0.4938001492708610
  0.4772859981615384  0.1481040684815689  0.3269869001573374
  0.4078216581070415  0.1611607751269366  0.0972826739664947
  0.5228747559594041  0.9927956696438789  0.1720667057941522
  0.6706047617610086  0.1539643619335787  0.1155140232825817
  0.9925858623242110  0.8380582869063382  0.8101172724222495
  0.1546334852725644  0.7001233616695852  0.8663871339813732
  0.1850685440107664  0.8170266832413434  0.6678734040353965
  0.0064906839054270  0.8287196793384929  0.4946407478373215
  0.1843456770163940  0.6818939151677651  0.5004770435625928
  0.1872232382555708  0.8555197251817096  0.3313961863959586
  0.9886970451291801  0.8275252787746190  0.1884984786386711
  0.1520261945087547  0.6756675830031894  0.1791778870782465
  0.1466522927716925  0.9022399692164118  0.0057539341553104
  0.0250562010602787  0.4996337008063682  0.8061932645498024
  0.1871706477080665  0.3397533352315891  0.7992043492037090
  0.1639289151507151  0.5160489556036341  0.6610434748941141
  0.0192809383556519  0.4764379090679393  0.4796972186619780
  0.1612393175485095  0.3288213028995599  0.5290111604841043
  0.1379618768595962  0.5075556833952115  0.3299690756957837
  0.9799528177814362  0.4972477741427254  0.1567277151345729
  0.1559204658476051  0.3403438149354771  0.1761636470951323
  0.1755128131894448  0.5123904915349444  0.0131856694264945
  0.9931405826571902  0.1802118730233681  0.8488997040728242
  0.1557346479373603  0.0068448349957849  0.8041315855343214
  0.1605195476879972  0.1652007028493772  0.6760795132311570
  0.0039556127870944  0.1661759154038683  0.5053738753503449
  0.1827762196148911  0.0267941301779070  0.5094950066837607
  0.1623605407339278  0.1713779970611705  0.3508483125204917
  0.1920193221007019  0.1722017739398033  0.0157443435388187
  0.1505021313731403  0.0065097967207067  0.2159982338217778
