Cl O  Li
 1.0000000000000000
    11.7780000000000005    0.0000000000000000    0.0000000000000000
     0.0000000000000000   11.7780000000000005    0.0000000000000000
     0.0000000000000000    0.0000000000000000   11.7780000000000005
 Cl  O   Li 
  27  27  80
Direct
  0.6360616020404094  0.6671585595966461  0.6839353385015104
  0.7035351530322197  0.6638702941163935  0.3262735430756420
  0.6789741122999953  0.6694263903195113  0.9939577966851121
  0.6710364213720974  0.3187329436514899  0.6637566409675961
  0.6685370950752295  0.3090978209412876  0.3287011697115169
  0.6926673305603458  0.3341743219127923  0.9878455384888706
  0.6795141876685152  0.9847982034300644  0.6460161772469594
  0.6649552294021350  0.0021692071837763  0.3346516747782122
  0.6476420082125321  0.9804539329642901  0.0072910193129136
  0.3477306662724852  0.6745062971309851  0.6735292926153443
  0.3220488679370567  0.6405296050958107  0.3089278323445671
  0.3112238790288930  0.6872040196464676  0.0098114353454347
  0.3455662757720015  0.3384402695575422  0.6518906507137985
  0.3338291303353190  0.3247256547580414  0.3410427015903997
  0.3284183160257494  0.3124179079537485  0.9994019578858748
  0.3301198368344572  0.0074130586348280  0.6533690159429499
  0.3172433307487060  0.9739574644322674  0.3569216056768594
  0.3225491056622017  0.0138816934475211  0.9880155708847483
  0.0143232320682528  0.6654690629546888  0.6839229499660706
  0.0102472818197389  0.6717148686014428  0.3310584529476313
  0.9822061690192694  0.6755202137373730  0.0049853758497546
  0.0108537602189807  0.3356269789066357  0.6372903163584658
  0.9848003931170228  0.3417155797066160  0.3268714518522529
  0.0080617908296652  0.3506375924062399  0.9992913897800799
  0.9707762850709432  0.9991479792765762  0.6452350517476920
  0.9783714542487701  0.0066238803344910  0.3338607720524457
  0.0152593104133665  0.0174465350057381  0.0156188472610562
  0.8431843924672197  0.8293997103954990  0.8343366931067929
  0.8332634427628831  0.8195244282335679  0.4996630802372115
  0.8295997560763121  0.8447289440712841  0.1771841181792722
  0.8147593432400705  0.5064708339769626  0.8372971482228095
  0.8600175781512346  0.5035796493973429  0.5050993801123345
  0.8483590756233491  0.4927778181436616  0.1792675985880028
  0.8264014896623429  0.1468773784296162  0.8447037920286025
  0.8168153542981608  0.1734731146516007  0.5030022358777512
  0.8248692788379791  0.1427986150776964  0.1618998334298662
  0.5180382111174160  0.8451379276824379  0.8301814325728026
  0.5011175769479435  0.8213367171238553  0.5122531115622695
  0.5142482099518508  0.8303545992742031  0.1984489987763070
  0.4847857625805517  0.5163374927465776  0.8487928994027604
  0.5137536806695064  0.4952228130203982  0.5178478713318744
  0.5075003852219145  0.4975664324306599  0.1489640162185616
  0.4897959940015288  0.1795782739842441  0.8256074719292746
  0.5013726350305279  0.1507020351060849  0.4914137731090514
  0.5161996067106716  0.1656675174949653  0.1722852418783186
  0.1601857901388730  0.8571091395166539  0.8181982370572459
  0.1685860876033821  0.8331161090858041  0.5074838897866297
  0.1455132298122180  0.8455185715066376  0.1763724666809146
  0.1619337173487178  0.4971615783313194  0.8315517827282500
  0.1817502222840097  0.5104138295066685  0.4927054196275871
  0.1619434945752168  0.5048703242660402  0.1659219880573458
  0.1666671702646809  0.1710479373830269  0.8163402806245530
  0.1685726970540464  0.1739792025184812  0.4927876859805731
  0.1642135924810383  0.1783886709414472  0.1769159833092791
  0.6914567358324981  0.8248363569293737  0.8455592487405087
  0.8287066479331672  0.6574202395765220  0.8218654054890713
  0.8364825996483786  0.8301387310684349  0.6534164243579826
  0.6855992257524215  0.8157132936840172  0.4923339255060323
  0.8808159858550093  0.6615513303207815  0.4865269412175532
  0.8614137579982201  0.8171186232336475  0.3296907141011247
  0.6946022092719136  0.8536996202336490  0.1814508755322208
  0.8518030884756180  0.6707490891474664  0.1885255794619645
  0.8444646221001540  0.8604886186254880  0.9869906030266172
  0.6690229199944379  0.5305827295713790  0.8386670935241576
  0.8608489865296400  0.3082131540061139  0.8658304554361224
  0.8526617030494992  0.5041866876338940  0.6629553537341816
  0.6650161599440859  0.4720540250503953  0.5527751203068900
  0.8406656331735834  0.3369497384627056  0.5155577736335454
  0.8586869036975228  0.5093657027288861  0.3408293434800473
  0.6766464846266574  0.5353424372756842  0.1747736573572094
  0.8290566847874569  0.3264798065996635  0.1686420003237643
  0.8356022848947726  0.5062309174376936  0.0017127747439315
  0.6699596714094918  0.1866359537991105  0.8510814586555118
  0.8249700875087150  0.9894277530717700  0.8016091783951332
  0.8396490445301396  0.1636526699774255  0.6696290091931189
  0.6454284684243886  0.1927826309196412  0.5032749051136570
  0.8400588378494919  0.9884817178461507  0.4797430035019558
  0.8066606418368650  0.1911773034449367  0.3443897923712866
  0.6819070373372568  0.1289396799131332  0.1736272320041072
  0.8336722644323971  0.9953629040467478  0.2181883891270270
  0.8146690607759177  0.1363811006860595  0.9990474790625504
  0.3723741757847454  0.8474732880690731  0.7840205349617493
  0.4909817306876770  0.6902167819121191  0.8639688553165353
  0.5491816936799963  0.8481931186577003  0.6842379264553574
  0.3427348071720347  0.8408038026073590  0.4972212432224498
  0.5130447811415615  0.6640066084916414  0.4937737081395165
  0.5180794657501389  0.8286467627415457  0.3407922588445478
  0.1921006412169265  0.9978050077692687  0.1863450757683270
  0.4739498426117058  0.6728846945214869  0.1893551255115129
  0.4924559259196053  0.8221809188918000  0.0496420152816658
  0.3239346580890793  0.5053563111268884  0.8931099295037781
  0.5158554807262322  0.3555010237307964  0.8207676840841197
  0.4780503263860553  0.5246912522323673  0.6855724875084231
  0.3599509848340257  0.4852823898338833  0.4956464012614255
  0.4928935327155823  0.3246793394490768  0.5071758363024415
  0.5261544427031227  0.4632699056570067  0.3351581877418970
  0.3329377225793912  0.5127940072421007  0.1648187707579956
  0.5446708093051454  0.3122820996461247  0.1724513332725730
  0.5153090491483524  0.4735362363934904  0.0069794347418778
  0.3374447001121834  0.1451837826399029  0.8162896738621356
  0.4925210669441892  0.9967795204858586  0.8699233684388142
  0.5055471261342367  0.1448491808481505  0.6496604309367621
  0.3244858062172164  0.1493964919705895  0.5095414797757073
  0.4832758997024716  0.9926534369644481  0.4746391293278012
  0.5154933387343721  0.1576445642937465  0.3267180728767178
  0.3437785615255441  0.1690646988492930  0.1585007391399191
  0.4684667416026991  0.9889254619772397  0.1947720328752776
  0.5288533215855556  0.1891851986064272  0.9887003664117539
  0.9913550341224446  0.8119532517218032  0.8559925817929704
  0.1940087185871179  0.6816220532664019  0.8086159882924178
  0.1562663571177487  0.8626745068786469  0.6738264150388503
  0.0016379191216457  0.8658075917826223  0.4704139504908549
  0.1430635082638716  0.6737691387869060  0.5247210793763765
  0.1783379297504241  0.8243013827225053  0.3292385730429814
  0.9978503894638401  0.8486001589691770  0.1614962546209388
  0.1775615410441190  0.6850833938741225  0.1669664205414717
  0.1562848285860311  0.8457824554085877  0.0084528316521289
  0.0071794897606345  0.4937443668204269  0.8336788051953646
  0.1610973191435379  0.3342044430577833  0.8144062925920040
  0.2136112480095560  0.5197182673885296  0.6548267740984450
  0.0165365213529225  0.4444400605258647  0.4863444329895706
  0.2096027268438717  0.3425270692633338  0.5065541828329044
  0.1689254363094492  0.5063880413136476  0.3234434509796129
  0.0011554489563471  0.4871764592522374  0.1691892011244327
  0.1740898564141602  0.3172308337294121  0.1267271214144205
  0.1281026209690188  0.5286114139908705  0.9737053157567620
  0.9821308965208496  0.1531438316354367  0.8303158441337838
  0.1720062140637899  0.0054597761415227  0.8497953991235471
  0.1509079208072813  0.1919897646514930  0.6618438672898524
  0.9853064556805221  0.1857425825008010  0.5172903467516726
  0.1479391358181706  0.0012145342536160  0.4840008945501287
  0.1846612851999069  0.1938802915964778  0.3261933617212677
  0.9973049976967820  0.1643661342353406  0.1445435661281510
  0.1866823573492241  0.1747835666430507  0.9760474144338130
