Cl O  Li
 1.0000000000000000
    11.7780000000000005    0.0000000000000000    0.0000000000000000
     0.0000000000000000   11.7780000000000005    0.0000000000000000
     0.0000000000000000    0.0000000000000000   11.7780000000000005
 Cl  O   Li 
  27  27  80
Direct
  0.6417671432578707  0.6522182700755786  0.6318894209040428
  0.6525622134480930  0.6806334813481140  0.3506395047898122
  0.6749054229387209  0.6917112611559056  0.0056845765213951
  0.6385081892144102  0.3217167799132248  0.6597284033369868
  0.6804169851909112  0.3400851925846436  0.3244804846847861
  0.6545459985348610  0.3713114273251290  0.9947322973725995
  0.6777096853432121  0.9914126225973195  0.6620502415967040
  0.6666453466915183  0.9960560897312745  0.3485006200975870
  0.6757090178405015  0.9985576240644453  0.9949172214409031
  0.3119339457572980  0.6676791218190594  0.6668720539198483
  0.3400998681181645  0.6432300637307125  0.3339913779146057
  0.3530749156916951  0.6578649726261288  0.0122192949096220
  0.3603952041180988  0.3196361739685996  0.6754791711010054
  0.3099696948808232  0.3318902168766150  0.3335867262423150
  0.3293786433156616  0.3435522011497550  0.0049541368576115
  0.3510769607114503  0.9935884217598058  0.6639381167473384
  0.3201866131744826  0.0038994819158367  0.3337045590279280
  0.3339447093042525  0.0146611041990238  0.0017894341136466
  0.9927943677029140  0.6566576572164857  0.6571610615514297
  0.9950279604206657  0.6689677724172598  0.3295798447357332
  0.9784496019258817  0.6712504612855708  0.9975808307309998
  0.0323271274749023  0.3486744557000196  0.6823830670862372
  0.0016936763111639  0.3136131392900075  0.3096852738087359
  0.0069411952501026  0.3618566266307729  0.9839310218444279
  0.0204006115332532  0.9890697641862477  0.6608926827558701
  0.0038721146163102  0.0126077778296798  0.3336382641691610
  0.0246794006439665  0.0147236427708503  0.0146289333717955
  0.8156698329903539  0.8420874338362090  0.8216532011426150
  0.8267835638421671  0.8657305083835891  0.4940542922027773
  0.8148589912001951  0.8348139870290993  0.1668218673150149
  0.8324944357674628  0.4935910089090781  0.8349614031544927
  0.8234138822025371  0.4630118524755684  0.4973351488530121
  0.8388180948575203  0.4919692443579402  0.1715224966848741
  0.8274359457378443  0.1793471638431169  0.8128937778492861
  0.8262568486589255  0.1554136672075750  0.5021178522701599
  0.8315979268498834  0.1597539764290211  0.1946788353913222
  0.5096265303762874  0.8252139246838998  0.8380603183724840
  0.4802642439091651  0.8262072747020414  0.5024787796997219
  0.5091775876655288  0.8546102188953666  0.1418537761499611
  0.5112541248264557  0.4901340812110402  0.8222761906306800
  0.4770259374247711  0.4899378889144997  0.4999152435426985
  0.5014075873055778  0.4941801121090283  0.1807041828038150
  0.5067538476290075  0.1735716772035665  0.8506985678207736
  0.4900276648834483  0.1584229780920297  0.5022954617635406
  0.5041959389439651  0.1693949087955489  0.1785212702282865
  0.1922528797245554  0.8428682354521969  0.8455083382672296
  0.1521712611478448  0.8271900175427804  0.5068166294325145
  0.1609241156834120  0.8171750607165769  0.1610817446810419
  0.1838668331243432  0.5177402725368634  0.8286291611575296
  0.1660842139706125  0.4910555291411389  0.5131761990811834
  0.1672387465270540  0.5083802077017531  0.1614516193861993
  0.1727330417519076  0.1523584357469026  0.8232969087859369
  0.1712475713333127  0.1535683118587240  0.5106787351131723
  0.1774017382546813  0.1651462180567835  0.1678793765865495
  0.6446275184405305  0.8361647422461386  0.7778288784804945
  0.8210937443300371  0.6684944574897209  0.8069454994801372
  0.8323483644084210  0.8456808378511346  0.6548180899077268
  0.6614690441189917  0.8374119357845666  0.4864029545793430
  0.9464075859323129  0.7839558102158585  0.4847291257910300
  0.6524956149487514  0.8458882041208167  0.1717023936039160
  0.7994095158569058  0.8343246803646363  0.3226509085244569
  0.8108307738825778  0.6795640997301161  0.1851002100706829
  0.8211891279558418  0.7968581864785578  0.0128297655498340
  0.6763816424411458  0.4890216636022825  0.8314616823781548
  0.8682952789180354  0.3348943759926555  0.8482595647847071
  0.8228055484328682  0.4569298912828173  0.6863061033088457
  0.6661005345300359  0.4714705501439072  0.5203834117576411
  0.8281458169156277  0.3157534409715804  0.4939438480044772
  0.7995363971316389  0.5326684982272520  0.3342524885659753
  0.4876521429701585  0.4891881396079313  0.3435858532732342
  0.6906637614743969  0.5056762681430785  0.1532102777624438
  0.8574721523387285  0.4971928338892698  0.0012936649656231
  0.6823665196208750  0.2279404248830076  0.8353259337855389
  0.7991082234361765  0.9987185753930993  0.8344634326123043
  0.8458069292327938  0.1573374529168207  0.6578675724401887
  0.6711831538639752  0.1337632541730908  0.5033487706737945
  0.8336792008037728  0.0097136928499891  0.4410489716736849
  0.8186461583870648  0.1802845630247297  0.3438940282136521
  0.8172238249652621  0.0004214071541728  0.1358051243282332
  0.8268047781969727  0.3300167342892124  0.1815447408848656
  0.8892735228127371  0.1364400179003473  0.9769172813510305
  0.3511651379342866  0.8100564301170547  0.8526795998996660
  0.5043794997926059  0.6610553848705709  0.8391012792327082
  0.4715748198896121  0.8300631051441595  0.6610477418759173
  0.3227023563050788  0.8301559786745480  0.5197208275386607
  0.4858722424078185  0.6513190486355336  0.4810120388487560
  0.4839821000742279  0.7992297408216740  0.3484902558326439
  0.3503866035012549  0.8472970963865213  0.1268262397490043
  0.5072414134208432  0.6529898005326915  0.1966348879722854
  0.5368081916935422  0.8299209203844710  0.9909715484971729
  0.3363375994584040  0.5270295283899992  0.8082133405776314
  0.4776203037280127  0.3441650287999266  0.8725608511267948
  0.5097304159381780  0.4952925297177859  0.6579465999603799
  0.3311952236594020  0.4855848976383917  0.4736771756747761
  0.5160666255053149  0.3186956169250120  0.5028216101510433
  0.5060078634655629  0.3432880338499354  0.1685917983451588
  0.3255283796174097  0.4981046867772142  0.1570410780998701
  0.4888134264687065  0.1550768893250387  0.3376715016776100
  0.5161528594284744  0.5146671870104101  0.0030575320404603
  0.3391975900296694  0.1784564645818631  0.8815478024239530
  0.5025902471005710  0.0091350804318880  0.8260437628791416
  0.4741214331452832  0.1764627808123662  0.6876847124879196
  0.3222307215220523  0.1815140441963116  0.5014780613369724
  0.5021058391707102  0.9901813240103823  0.5067769942161890
  0.3545511756795299  0.1950434787307741  0.1324713633685672
  0.5485996078222414  0.1576341198794649  0.9895711018675313
  0.4750457150540772  0.0072525442946889  0.1758512979285465
  0.6766475101281826  0.1603322801458714  0.1965918317388205
  0.9901167480887881  0.8686092639423592  0.8255470878700708
  0.2026871439414456  0.6687432808191757  0.8225657422825281
  0.1755363325065604  0.8210640891948408  0.6875545114095719
  0.1487995957231281  0.8299591386114489  0.3674492494214754
  0.1433207254394593  0.6586853689730322  0.5107798676671876
  0.1965202241159479  0.9799532099927948  0.1625363449745620
  0.0008129782113328  0.8232413945410935  0.1858649389789270
  0.1802356157365392  0.6615992253822149  0.1855144162997181
  0.1292790593771589  0.8423859732490626  0.0008466200084552
  0.9851799243070357  0.5454668674718306  0.8377568397396186
  0.1695751190489375  0.3300694462929464  0.8247584320845557
  0.1919973358170517  0.4909343967946163  0.6715213174258536
  0.9711831641553664  0.4797780348061425  0.5165403342196524
  0.1767047211945518  0.3390062766526063  0.4767522045009062
  0.1753195533790686  0.5022312026701513  0.3246672438808118
  0.0172470270949915  0.5103303898982758  0.1777587680175888
  0.1755416158525568  0.3153690320042568  0.1819283603866956
  0.1251209851071783  0.5211777672381330  0.9859571407531272
  0.9857334522181754  0.1711119253949090  0.7899132875208863
  0.1894571597415602  0.0140355312357374  0.8406400486934810
  0.1689770382093344  0.1353164465611529  0.6715611550692288
  0.9941582193174825  0.1558035113411823  0.4915320916492965
  0.1713863553185667  0.9851380071533056  0.5151952469600038
  0.1855048728102744  0.1432895419800379  0.3283753633047855
  0.1677723138659272  0.1523074140090333  0.0086609828889259
  0.9989281793192691  0.1474729803593421  0.1802984582681610
