Cl O  Li
 1.0000000000000000
    11.7780000000000005    0.0000000000000000    0.0000000000000000
     0.0000000000000000   11.7780000000000005    0.0000000000000000
     0.0000000000000000    0.0000000000000000   11.7780000000000005
 Cl  O   Li 
  27  27  80
Direct
  0.6787985610023853  0.6453495087928176  0.6636964507399069
  0.6810911687961301  0.6797421884150644  0.3596967706484906
  0.6798055141182647  0.6635779026739795  0.0025507378373078
  0.6497653804326169  0.3274061676951988  0.6745029378157306
  0.6796655965415327  0.3460852046743365  0.3087266719194874
  0.7011279649682258  0.3487979700523767  0.0047559041040249
  0.6625786078226413  0.9933254190568922  0.6547969074427963
  0.6611330762609463  0.0045419584954333  0.3382486126006845
  0.6460828680304265  0.9938413916896418  0.0050138284271158
  0.3422183687227801  0.6874872902479057  0.6626532226967264
  0.3306328209035956  0.6542775943039317  0.3484226366025188
  0.3223652953409653  0.6676370913301961  0.9948585273459150
  0.3292117627722058  0.3237098902536308  0.6527409773555258
  0.3359246890787789  0.3136252175515211  0.3173514204966708
  0.3294113558431806  0.3575772311965733  0.9787671751219494
  0.3659006331469765  0.0075390307669818  0.6679447467459254
  0.3210853086204906  0.9966497363202527  0.3611525450188989
  0.3361377233058518  0.9899064935582149  0.0012188551471431
  0.9987136615233266  0.6781569417036870  0.6408119918038707
  0.9980578597175330  0.6485712567445487  0.3529368002955742
  0.0222757087926693  0.6657040749474855  0.9636730781767230
  0.0048737366260612  0.3438690333345470  0.6755502953707242
  0.9865181369543022  0.3556133244460830  0.3246908180365632
  0.0250908769544615  0.3264444975103306  0.0038416578325105
  0.9918335492931158  0.9878451207136465  0.6903975907266546
  0.0016268938878702  0.0080590943238884  0.3328722716176739
  0.9971960607131268  0.9940869505666282  0.0004564335909730
  0.8633538122821233  0.8353094813279303  0.8535550073231345
  0.8185508762910775  0.8584511035878674  0.5200889527756557
  0.8236819971461176  0.8323022250780298  0.1656596642992083
  0.8620189273457782  0.5076525163102470  0.8397774174684814
  0.8287460741623071  0.4884887880033790  0.5132777278937627
  0.8458381235574403  0.5163606850745994  0.1627553523254175
  0.8389092885596890  0.1758302098915001  0.8407993501860364
  0.8227369867074373  0.1768451386331366  0.4969958320368197
  0.8072936651464578  0.1734598093825670  0.1605283207744134
  0.5143106318938331  0.8255740357719114  0.8238477851633744
  0.4872858110546626  0.8303910708166833  0.5087833615661651
  0.4838043087127948  0.8252639985026364  0.1792633996822522
  0.5239987500056391  0.5079655090144470  0.8256629890031770
  0.4904758994158253  0.4983060950582844  0.5021112040673955
  0.4709898262750625  0.4929087421475178  0.1587073983704576
  0.4819086198780433  0.1825452616820948  0.8374292636923070
  0.4786554552482034  0.1724958517720375  0.5013773655269311
  0.4820034367081088  0.1432234732790263  0.1661445175685783
  0.1778417744915466  0.8295032257768298  0.8242742584716194
  0.1724489357039877  0.8171188198488269  0.4931777339967601
  0.1609372231511704  0.8171176052865288  0.1791038466817022
  0.1858143840855124  0.5174526575513403  0.8063935532909713
  0.1791406071703455  0.4778106801624560  0.4755973495870026
  0.1567135422743917  0.4986779130631186  0.1650845285656853
  0.1535132313472207  0.1585289116551228  0.8314647911591846
  0.1462730736684291  0.1608263979407647  0.5245166801185019
  0.1636315575463382  0.1701622120153246  0.1612924828869184
  0.6709099788767375  0.8322962332373594  0.8465315984077774
  0.8569115309409592  0.6619324946434403  0.8367017408757924
  0.8589654367577331  0.8257776773838795  0.6992002524377933
  0.6512670652578902  0.8299485652861044  0.5176830668049155
  0.8081853158148453  0.6551389618856883  0.5036377874197785
  0.8196315938238568  0.8681420151929585  0.3531067175610673
  0.6684775344770806  0.8340084421942899  0.1587714968957356
  0.8373208839863368  0.6569777687194825  0.1618229834559891
  0.8169722691869292  0.7892404855974269  0.0241475494542083
  0.6750466566075680  0.4948545924051777  0.8278513063809316
  0.8273279512231376  0.3260973351201462  0.8775416410592148
  0.8473013472432763  0.5181003431394651  0.6809321018840760
  0.6634209877471388  0.4479479130577292  0.4879186792463283
  0.8384743942861774  0.3376641989226462  0.5624078254693787
  0.8166100867096593  0.5197249011838883  0.3512954812914382
  0.6797817086972237  0.4715085593104836  0.1488957795156479
  0.8238692016816526  0.3211724469433099  0.1710350235110281
  0.8551510633753874  0.4990428485482641  0.0050697216984524
  0.6769006454700874  0.1440048821761632  0.8232047149119821
  0.8371829906801014  0.9922799639998732  0.8688627837316548
  0.8428717575715733  0.1671126181479856  0.6787156876318272
  0.6417434393666465  0.1421110961556787  0.5384090056249083
  0.8013402856156574  0.0199188491919717  0.5058497887623445
  0.8040831721386886  0.1842097990688279  0.3301631904119375
  0.6654883347200107  0.1594322626069811  0.1780648291211550
  0.8336267522714953  0.0197576261682618  0.1733935820375554
  0.8298141602471869  0.1616218147897388  0.9784295698188478
  0.3343856362201365  0.8358578157200769  0.8188949620536835
  0.5099480455755707  0.6784439022892994  0.8330680133925724
  0.4959760447824144  0.8120702892300520  0.6618219762599609
  0.3357956013492043  0.8091388216675481  0.4830547216114428
  0.5109499785006184  0.6580971903041587  0.4980952133435785
  0.5095923002784805  0.8404014123061542  0.3405109777932087
  0.3175295965222137  0.8309436156914632  0.1305007072017876
  0.4864135124122239  0.6600518258957742  0.1549731354930190
  0.4973059500133375  0.8425898106547288  0.0003459281901196
  0.3505901037305807  0.5144310289809132  0.8468065753120494
  0.4767704545616745  0.3289568601091973  0.7873974750666402
  0.4638227346398492  0.5259570632474947  0.6569669659006706
  0.3308450859078798  0.4823863816786111  0.4831354900042612
  0.4671090973058351  0.3384583202385024  0.5141355327594451
  0.4984801483576545  0.4894538792053867  0.3131354116050746
  0.3111349867512470  0.4987096131390970  0.1137539072612194
  0.4806728837106266  0.3406149780256887  0.1839321771558458
  0.5348332124997273  0.4833940635318695  0.9985882629740167
  0.3141308058728411  0.1290278918095091  0.8430071815313794
  0.5115143046296889  0.9869777359878384  0.8116340657236532
  0.4742014123889001  0.1825403831901977  0.6735229479828673
  0.3077184230069133  0.1618215293169434  0.5239092775132617
  0.4731838520956179  0.0014649572707380  0.4849093177551113
  0.4971856273750136  0.1329596931233683  0.3201306224324128
  0.3086200128434394  0.1656403864584391  0.1457580590322349
  0.4723496502239271  0.9910510363397552  0.1704940574634895
  0.4919612281354853  0.1509502352211677  0.9888527568480293
  0.0152078241241613  0.8386900940282423  0.8181814471890060
  0.1761638364341253  0.6734690551166046  0.7957523681439082
  0.1765362212346986  0.8211049323401125  0.6455735213516232
  0.9835676665525105  0.8220363396810551  0.5110734187790841
  0.1634971763494146  0.6466646773345248  0.4948455304589930
  0.1783480040573618  0.8230694463717521  0.3290801854534970
  0.9817181487974506  0.7941411634991226  0.1905657318162432
  0.1477311051004411  0.6507146758026866  0.1682342529731436
  0.1714961723093050  0.8115488371501015  0.9884891485252283
  0.0328583950527158  0.5017974758401761  0.8326088278731005
  0.2036390574588120  0.3188189490930243  0.8295481308820871
  0.1622008942514416  0.4900564235614349  0.6534734393920525
  0.9916969825166403  0.5026616369152183  0.4878898536344554
  0.1524475946296419  0.3200129650455040  0.5076005803149420
  0.1900845826983053  0.4658305210526444  0.3208118906680779
  0.9892819247027963  0.5323785350879527  0.1823302909409855
  0.1722681076205173  0.3282858751676556  0.1268814734953241
  0.1493426268428656  0.4899263439393169  0.9867353490331894
  0.9933039762189975  0.1985420592822824  0.8396720744318329
  0.1507273898042495  0.9859915860468198  0.8584587621159852
  0.1202947804333486  0.1638317513763983  0.6768895122459323
  0.9961935843979677  0.1671202901331680  0.5174069158237553
  0.1698289628855163  0.9855344450405495  0.4780915747222190
  0.1192743861613710  0.1903766176808008  0.3503718066637932
  0.1560004018997561  0.1462002642579515  0.9891793381005229
  0.1116637768603304  0.0068736328120109  0.1452730134571677
