Cl O  Li
 1.0000000000000000
    11.7780000000000005    0.0000000000000000    0.0000000000000000
     0.0000000000000000   11.7780000000000005    0.0000000000000000
     0.0000000000000000    0.0000000000000000   11.7780000000000005
 Cl  O   Li 
  27  27  80
Direct
  0.6453855440877269  0.6736363876153495  0.6738714595879958
  0.6587458508221901  0.6752913097172234  0.2956501406196683
  0.6658046035004196  0.6925091067956116  0.0010726998827919
  0.6583807533954048  0.3287977789903492  0.6636799458890699
  0.6610832759647317  0.3275607877752246  0.3367118806068245
  0.6531633581317950  0.3526137667235577  0.0258057969650985
  0.6560658381407862  0.0281359438243262  0.6647451979952543
  0.6913440956199300  0.0219803776259769  0.3398927787799321
  0.6692012484230657  0.9855106408583196  0.9819560950116258
  0.3304871106712473  0.6501103968734987  0.6893661571341813
  0.3457230254771345  0.6511241515382470  0.3621857863622418
  0.3382859771284811  0.6965448543994764  0.0234580885284335
  0.3512486766519821  0.3380394037586975  0.6515363876647646
  0.3246848834184354  0.3325353110646400  0.3241318289353152
  0.3405280996160383  0.3416965115661543  0.0068777861013881
  0.3206033265732302  0.9887941391815526  0.6809534508915275
  0.3221956987167559  0.0087104906265098  0.3518185254987924
  0.3372135793474433  0.0107915868241459  0.9944880658307468
  0.9946373340172135  0.6667172691159823  0.6690665701662039
  0.0068776390869861  0.6384714083132011  0.3273345689870822
  0.9874085761442410  0.6505337123197691  0.9905711365791930
  0.0044749720226279  0.3406823115618966  0.6671908001531399
  0.0118201295609603  0.3382453530390320  0.3198606789153888
  0.9982562882794608  0.3401709808344298  0.9817656832725228
  0.9799138664504891  0.9895234117268779  0.6761932978477130
  0.0083859116475572  0.9920983103672331  0.3538853866467450
  0.0320528283058813  0.9914545936144510  0.0005669852407842
  0.8460964982016436  0.8432775021273560  0.8447277841645823
  0.8232002175259068  0.8372239616923786  0.4883307124596433
  0.8420523296325124  0.8268473891846445  0.1729977491383416
  0.8250544493008858  0.5093910875685320  0.8209649537746174
  0.8275520752105368  0.4862391010436519  0.5194865835576633
  0.8445642064064600  0.4813749409817167  0.1506898328038237
  0.8312104987938164  0.1599146120804229  0.8258146200597962
  0.8294704358748511  0.1750541311252572  0.5022420661087186
  0.8373032291056099  0.1560675770936130  0.1483928222217486
  0.5049723854526815  0.8367856666444327  0.8243166598922366
  0.4924944987131408  0.8324776951441715  0.5154424149885322
  0.4970240468619711  0.8410855410627072  0.1569919131703862
  0.5019717688100102  0.5022866268624868  0.8337463596324335
  0.5020082461643608  0.4999011860237633  0.4985088254878809
  0.4888736455902800  0.5048585030139566  0.1641524360478376
  0.5030138632617125  0.1727246208803574  0.8452877783547901
  0.4811926321613640  0.1728999024626669  0.5009025658356409
  0.5043547805241377  0.1607953721735379  0.1636025328460560
  0.1598333447219131  0.8041404992565789  0.8385740018546082
  0.1610802042557092  0.8263593780532994  0.4985952618380900
  0.1872908635011062  0.8432817935808090  0.1810932319514572
  0.1635922632140015  0.4867563021555592  0.8280463377970001
  0.1741404736171511  0.5017105194791255  0.5055796023328609
  0.1839229632195132  0.5018351335709024  0.1312317350813253
  0.1671593213484125  0.1736370000786310  0.8427477237355282
  0.1537030237069958  0.1687076180212921  0.4881604713108707
  0.1728952436211048  0.1420860419864171  0.1547358434591068
  0.6709760883091641  0.8496321730414228  0.8518648761110343
  0.8316861213897213  0.6862218845744951  0.8333721125030034
  0.8290207239413040  0.8401540527509448  0.6724426080151936
  0.6692736363360278  0.8721714533723612  0.5235584441471893
  0.8636433606919758  0.7008254577626224  0.5232774754022471
  0.7846036948777492  0.8327814976603165  0.3465442077488154
  0.6660938717543984  0.8425156476832172  0.1474362127131221
  0.8372494644812174  0.6525352300160880  0.1999899589798102
  0.8640739635120342  0.8599967618678167  0.0121053596500890
  0.6625711552652177  0.5025099038982731  0.8371239764124105
  0.8375445221488168  0.3459602325133577  0.7912212947459165
  0.8668209795468788  0.5208921018517744  0.6616751488745461
  0.6725309304776810  0.4862908413975476  0.5362493651138029
  0.8147118845374963  0.3228021326915774  0.5160988049397928
  0.8337746827173987  0.5109995729052115  0.3557680796649076
  0.6559636529661128  0.5056629885947560  0.1485720814955840
  0.8341688486685164  0.3406299234414419  0.1441615199665498
  0.8310203793087659  0.4891409737714941  0.9924209219175091
  0.6587597778032073  0.1294397258201983  0.8432260993393088
  0.8532449260628772  0.0050753186365152  0.8492255512666144
  0.8225600622240299  0.2082330176722713  0.6515657395869667
  0.6460127035730152  0.1643228963051483  0.4958988525656631
  0.8623233743864863  0.0171122930096162  0.5266255783183823
  0.8388805406766400  0.1872236809827402  0.3040030296691445
  0.6726617793225879  0.1681672086481400  0.1579689678110293
  0.8503222033489189  0.9929771151415653  0.1878703276327758
  0.8650439939340538  0.1589633466459077  0.9981879505855983
  0.1719090190351116  0.8277427645107456  0.6602292529441619
  0.4822884102666388  0.6676824817742197  0.8731059512870278
  0.4824024171810131  0.8132943314134853  0.6817325521202982
  0.3502623710951689  0.8166654705278730  0.5093523567137943
  0.4866954495650087  0.6537203189356774  0.5269038750262689
  0.4911860102640727  0.8155292879834842  0.3472880461855335
  0.3434879474509059  0.8472909017849373  0.1623592360283341
  0.4905959758996939  0.6781810773074953  0.1626584535718041
  0.5070813514269656  0.8607978061887714  0.0014114783139050
  0.3402766042495280  0.4851191126632367  0.8329057205805632
  0.5037215887127693  0.3261991014975030  0.8045095779361068
  0.5124359517448417  0.4991294936250106  0.6574400511121661
  0.3450608056268434  0.5253412864618857  0.5295207304681755
  0.4910139067864431  0.3323274792127435  0.4580681114464079
  0.5017217309182577  0.5165887456882454  0.3195258443325293
  0.3209842335525946  0.5067716005749798  0.1677256783286160
  0.5053663084913397  0.3124302160059856  0.1757488339568845
  0.4737523854653259  0.4921833308718074  0.9966247823394948
  0.3371114346581797  0.1478433000701448  0.8291002539884030
  0.4921442189463915  0.9966691738769011  0.8426665909740204
  0.5193494832576381  0.1821248269994174  0.6590899935086180
  0.3282853723800994  0.2046858682381954  0.5023148183903700
  0.4531245832790132  0.0041906947170896  0.5001137076230762
  0.4603256826585711  0.1610687701468225  0.3379463212411233
  0.1659758923306305  0.1351668830016400  0.9907096599396206
  0.5081015432718934  0.9996022986527282  0.1650648658528735
  0.4600737419525515  0.1893270599704533  0.0096910995253377
  0.9831768272843640  0.7985288165856218  0.8045047196869148
  0.1371516772042367  0.6400006637026396  0.8321951206654008
  0.1652220135122488  0.9911139440716773  0.4557318198953442
  0.0113831629405278  0.8517698836567600  0.4859902104259465
  0.1578568773729907  0.6479775445073537  0.4735345501764595
  0.1947682150753489  0.7906174816595910  0.3201456557159145
  0.0030996424780509  0.8334980894161490  0.1898521896625719
  0.1605105745379373  0.7466093552363703  0.0662832945318347
  0.3255642062794978  0.8177799528925372  0.8578787410871889
  0.9957763929234614  0.4999421977440264  0.8182767225549969
  0.1639716418691409  0.3241073013370311  0.8026077353190453
  0.1874518537337089  0.4859235577586259  0.6688203783883950
  0.0034741426412932  0.4894453025979683  0.5110436751991987
  0.1266177885148512  0.3332305670094372  0.4796045276878702
  0.1615924560262522  0.4991184815935085  0.3363372286232948
  0.0051983637458680  0.4660913748483370  0.1576246596422453
  0.1693298453885012  0.3382427417300913  0.1139813674906450
  0.1879103712439168  0.5091973648819977  0.9850310909433605
  0.9910846273280398  0.1560178508888616  0.8141739311122815
  0.1511244674628869  0.9483521207507783  0.8397262166213310
  0.1370046544380612  0.1684288051244288  0.6630759035728541
  0.1576320720129795  0.1914308842976757  0.3304566621022607
  0.9953935533983571  0.1651609442907829  0.4990369171750604
  0.3299861037233135  0.1664043625647346  0.1656236758448406
  0.0107388515582872  0.1583824214987641  0.1548324821326194
  0.1872428882903343  0.9927719515312174  0.1440682415820617
