Cl O  Li
 1.0000000000000000
    11.7780000000000005    0.0000000000000000    0.0000000000000000
     0.0000000000000000   11.7780000000000005    0.0000000000000000
     0.0000000000000000    0.0000000000000000   11.7780000000000005
 Cl  O   Li 
  27  27  80
Direct
  0.6721178831698628  0.6711909134668741  0.6528370824557017
  0.6789472860008162  0.6747448846925240  0.3440768444663715
  0.6782986287628531  0.6546313281831935  0.9824450320300043
  0.6779060822281326  0.3444466920161540  0.6266099861338714
  0.6553999594479302  0.3627660161280277  0.3495086504609918
  0.6613923669139071  0.3231480668299392  0.0161182859177229
  0.6418319220750954  0.0024333415924951  0.6544139082018126
  0.6680633503357887  0.9964070551131254  0.3440433630323561
  0.6683312018079123  0.9822845384220177  0.0168059597043409
  0.3291051260474777  0.6601933757415716  0.6368215805961246
  0.3352248601276974  0.6608840568350464  0.3452198690450393
  0.3624709337321573  0.6491447859143422  0.9923587383251776
  0.3479812864875842  0.3332489944241376  0.6393878292756134
  0.3166358424575481  0.3662894208691773  0.3170002023024854
  0.3406374355525990  0.3442546292314269  0.0039922186556780
  0.3381505787619907  0.9839658974965784  0.6833035679933649
  0.3134777578129382  0.9995591947876250  0.3399167256831893
  0.3506473317025606  0.9765034926296158  0.0228719228343228
  0.9953761975192515  0.6705783287291621  0.6844580499430442
  0.9906406991412099  0.6666372764991331  0.3333764494072799
  0.9728217550860006  0.6574359549563741  0.9855580703302171
  0.9914734283561144  0.3225278101070447  0.6546983586920092
  0.0176855849290943  0.3457510104679989  0.3424727720393749
  0.9800033658013513  0.3386670556220853  0.9913612831497272
  0.0236483532794924  0.9887147146256116  0.6582249617805436
  0.9838704828166575  0.9922152938191571  0.2981012688192911
  0.0201986572878040  0.9893382342195127  0.9853556432805469
  0.8192515793685490  0.8223223819549071  0.8510407751324033
  0.8324388919463639  0.8391081187384792  0.5022261753686007
  0.8296957625108731  0.8217414972931734  0.1628384312449472
  0.8341931247588058  0.4983470386603958  0.8214510416322718
  0.8388880558072167  0.4982099550623591  0.5102134609236676
  0.8229795568860953  0.5015296777061304  0.1740147019337560
  0.8337984729827690  0.1751252503009867  0.8327597502183272
  0.8471305613865080  0.1752780422380777  0.5155125152591142
  0.8195779727434374  0.1794177766173582  0.1904331145929967
  0.5029934434594345  0.8476121600659442  0.8477895538022404
  0.5115741236679047  0.8340921383892915  0.5000840518435806
  0.4987798434497295  0.8072592993640283  0.1925603394871609
  0.5002327433560324  0.4795397843879970  0.8303470626987182
  0.4843256614242586  0.5109268676621503  0.5224185569710728
  0.5005068700666957  0.5076653630378640  0.1673005408221798
  0.4934462145741991  0.1683177399554552  0.8221582407729996
  0.4970528978035830  0.1746372594123468  0.4912496090856440
  0.5052854034866205  0.1752485283742358  0.1832610432523616
  0.1846229812870117  0.8410430784208669  0.8395091538792508
  0.1516981508086861  0.8348207138264644  0.5108429685627319
  0.1642313406181967  0.8204624822225371  0.1541782882981289
  0.1676467505283473  0.4932938522194785  0.8363156647436539
  0.1670379005697017  0.4963433347519401  0.5046708463620577
  0.1636378953580311  0.5303107151428298  0.1558804669947482
  0.1649416773781944  0.1683247844167837  0.8209576054559955
  0.1578991188639383  0.1905907173812000  0.5063366590392038
  0.1937946472669940  0.1504690789767696  0.1523107570659866
  0.6578339018077546  0.8304763054572624  0.8508671736946061
  0.7964485770773002  0.6757042674517308  0.8324497939198722
  0.8463559135528299  0.8330635660645072  0.6640875730222721
  0.6707787877508845  0.8055259570231121  0.4737203172632232
  0.8238905595804310  0.6892057872960439  0.5204161890811451
  0.8192264784143899  0.8505228990985622  0.3207344145731615
  0.6575732567385992  0.8219525882205696  0.1680756947234820
  0.8202957790615679  0.6633624521749786  0.1910747071269264
  0.8135661322806919  0.8053436107367692  0.0046194413994193
  0.6652115580600347  0.4552653803581054  0.8153574206414597
  0.8709906377311344  0.3393514007489054  0.8166450186190019
  0.8118079318980763  0.5056587036944833  0.6604246960438996
  0.6606655323493612  0.5404527556708160  0.5241442475695112
  0.8254485191255128  0.3399467791873954  0.4945078343917256
  0.8016567821528549  0.4989904327950674  0.3246813979157460
  0.6710397162179095  0.5247204897391374  0.1439045790956846
  0.8499907746275279  0.3356452043819035  0.1737137941244212
  0.8427020243354629  0.4997629349020190  0.9816767505270385
  0.6479122233660394  0.1463538483918518  0.8179098637961612
  0.7993785061942267  0.0192113402858014  0.8450505538785629
  0.8297234545312679  0.1626472825906261  0.6626128109946048
  0.6447710413800769  0.1700888045770772  0.4717580299291302
  0.8256728892673674  0.9878346351934510  0.5124036001448693
  0.8238865110394378  0.1525389360450574  0.3461837051993390
  0.6684350468843929  0.1667960249736169  0.1695007406677502
  0.8474081293570156  0.0157796501801812  0.1652432949590865
  0.8241010027412682  0.1847169726517396  0.9994330101996871
  0.3376121632952779  0.8311096592102707  0.8702455961303545
  0.4689668733992216  0.6201534672584457  0.8367952549097324
  0.4954280968467002  0.8352842717702091  0.7013661336354371
  0.3055517064403965  0.8071058596603781  0.4826298604565875
  0.4634418295055231  0.6686982672626453  0.5107009052592734
  0.4615939134544937  0.8152148443577067  0.3293504992726190
  0.3134308959509396  0.8277102612797489  0.1855961809692421
  0.4895847566601004  0.6606094038140538  0.2039188046420254
  0.4895560120190471  0.8166049513932021  0.0203537708218354
  0.3328411804043059  0.4796976370013298  0.8447345247686175
  0.5065029212195669  0.3216805719333551  0.8411491368648591
  0.4651320548848593  0.5158425656509316  0.6665847535924135
  0.3140063555677421  0.5069044802435637  0.4683695225738808
  0.5151332365406160  0.3412189927091626  0.5166028683194579
  0.5086243567001106  0.5265200662107055  0.3468870177407131
  0.3146336162665551  0.5190252856674863  0.2032014841488141
  0.4900336588854490  0.3394041532380495  0.1590945834467067
  0.4919001982250479  0.4870248079474222  0.0043268925620668
  0.3271784051460118  0.1672508583115208  0.8232179868634328
  0.4905655966865723  0.0090353552719235  0.8431142176922374
  0.4878959887555218  0.1796449807379080  0.6448789868811972
  0.3123313527025410  0.1736871073266047  0.5039574124682000
  0.5130174690174631  0.0074352036038452  0.4890484983183501
  0.4895322875688259  0.2046766643606158  0.3333568747115767
  0.3492801798944981  0.1760334999874470  0.1743100025138148
  0.5391608415115497  0.9669458918884227  0.1836642981780096
  0.4861325252696148  0.1559566333808692  0.0209623702770070
  0.0017946851421880  0.8581930219522056  0.8318726339158526
  0.1747950063265886  0.6826411590460593  0.8395085870835119
  0.1361461765287963  0.8206781884866657  0.6673081873825250
  0.9830609441506307  0.8372313770755768  0.4695392675231050
  0.1607500508247310  0.6442831359478229  0.5200553021369930
  0.1448260156275474  0.8293309732102284  0.3280774760426530
  0.9976163908216741  0.8430392520430745  0.1404087752827576
  0.1274710337375975  0.6697515356874892  0.1294145776037746
  0.1746730845145723  0.8272885652498759  0.0023825624050332
  0.9959044539947013  0.5469118789425126  0.8125587452235393
  0.0994204239455758  0.3181898794034322  0.8296877173125322
  0.1693028770711666  0.4951985693006453  0.6705065752527241
  0.9975668114951433  0.4950988942213877  0.4887326311500447
  0.1579282886017958  0.3475243119085199  0.4912714307215985
  0.1405982558457178  0.5220471166649630  0.3329862712690406
  0.0075993263375672  0.5226137504623998  0.1706422268008405
  0.1609914552028152  0.3665619686488532  0.1891542007358853
  0.1942945813515645  0.4912048860377018  0.9942533179229553
  0.0020906790348920  0.1274450465899860  0.8071062511844425
  0.2138441761005137  0.9885422240062495  0.8400353022667538
  0.1648357574244545  0.1460608352374541  0.6619310771767254
  0.9902595897347958  0.2020387969909535  0.4917445432220877
  0.1550401606706262  0.0000887296571055  0.4881875355906928
  0.1619304738008254  0.1953463967872169  0.3270530534723871
  0.1554092155462325  0.1568804395860966  0.9935370595391703
  0.1846291350693216  0.0130331946152305  0.1698667895016688
