Cl O  Li
 1.0000000000000000
    11.7780000000000005    0.0000000000000000    0.0000000000000000
     0.0000000000000000   11.7780000000000005    0.0000000000000000
     0.0000000000000000    0.0000000000000000   11.7780000000000005
 Cl  O   Li 
  27  27  80
Direct
  0.6969379557225446  0.6420192964888631  0.6585338664906830
  0.6480450216783221  0.6718373677010229  0.3333867337337459
  0.6894615960408452  0.6639297979181159  0.0002770984231014
  0.6839681307668953  0.3550937307559794  0.6832190354897653
  0.6518193549902428  0.3224936438720872  0.3499905088423697
  0.6930223688153639  0.3355693381747140  0.0086231996033492
  0.6700897727269163  0.0023171844951145  0.6633419137744496
  0.6726603128598583  0.0037013980568339  0.3595737292570363
  0.6717097559200170  0.9798335538904687  0.0003613078385450
  0.3206931547099019  0.6928148828583458  0.6825846291160989
  0.3366490822887612  0.6618947987877815  0.3419814016513482
  0.3186927908477660  0.6807052918929749  0.9943813091507129
  0.3177904317884511  0.3548692391578952  0.6890831851770712
  0.3421375880999942  0.3488089376594587  0.3383812163302587
  0.3194523578662434  0.3401343717853516  0.0067562446557138
  0.3189383348590160  0.9892152252827933  0.6741823276237981
  0.3475329167402639  0.9785321212892505  0.3246735042931517
  0.3169952983373465  0.9871216703328344  0.9986643441687930
  0.9945937418528632  0.6758186219431164  0.6433030528464475
  0.9842961146293313  0.6737126518891675  0.3280288540976651
  0.0171269607588330  0.6515800879864265  0.0239317914133288
  0.0181092557297244  0.3518374082641647  0.6503107129373406
  0.9953849099478401  0.3183128572871337  0.3362680803587515
  0.0191327079153211  0.3173636566085252  0.0080902129770747
  0.9999739836683795  0.9640957351317837  0.6742739461064789
  0.0101270510936043  0.0097478412096746  0.3264957525942828
  0.9938893577132949  0.0020873497717958  0.0081020182695777
  0.8151235311977338  0.8118270084627481  0.8125917013795683
  0.8397163934621665  0.8466701287559208  0.4889779737665878
  0.8211163435178100  0.8246304383835684  0.1671746524723328
  0.8479846477621755  0.4991394023119466  0.8202928360572214
  0.8489012374430822  0.4924654634551399  0.4800594023268082
  0.8548808515195202  0.4889341235736434  0.1577512482133806
  0.8369670292735457  0.1529700686264718  0.7993810692056313
  0.8396108884838784  0.1810150307038077  0.5082314177418695
  0.8364905159986222  0.1803287220346059  0.1462931282219634
  0.4891673987367895  0.8431260359702951  0.8427901735034680
  0.4785089263196845  0.8327200710549486  0.5146504604577314
  0.4942811918363780  0.8353096798159697  0.1444623779847461
  0.5032560784813759  0.5175864983775721  0.8345188423123040
  0.5168026990723553  0.4992406968076015  0.5117728384904398
  0.4837405724475911  0.5160177292280380  0.1407272244282891
  0.4869173006234754  0.1580300971016678  0.8363758270951586
  0.4854846434221395  0.1626387233774519  0.5006911315978844
  0.5076360330404999  0.1630280310793776  0.1674109253247078
  0.1328229074580023  0.8276808520804586  0.8449327423679974
  0.1673103128181420  0.8319731962124854  0.4968083783581603
  0.1587327095008269  0.8364298301380247  0.1744461762224708
  0.1603563566235266  0.5260751552492623  0.8335804714808527
  0.1665826381813401  0.5110777399932963  0.4782969104907396
  0.1562461158653831  0.5060711522592132  0.1559906996769889
  0.1518322547754393  0.1549875072102474  0.8358202863000437
  0.1746290425562632  0.1527132291858503  0.5068675452520117
  0.1956710712143160  0.1718653280587147  0.1923035820497020
  0.6524018995537838  0.8332965832924095  0.8238157954588615
  0.7907218410390097  0.6597974116407386  0.7974397128284743
  0.8052436336990703  0.8340818383034901  0.6454432735572005
  0.6847120906598434  0.8172535918394870  0.4654771649497159
  0.8528257311404485  0.6467306241282974  0.4857352948579208
  0.8569431783015601  0.8110631297481127  0.3422782406769846
  0.6485682146308996  0.8624365238881738  0.1905054225674817
  0.8189879445467578  0.6646868750838825  0.1865825887719229
  0.8139261347135245  0.8145977489478141  0.9934941194684327
  0.6676209319437286  0.4854475200701237  0.8384292470870129
  0.8306869324845774  0.3484227473340979  0.8606577614112977
  0.8411761354027483  0.5002826293176640  0.6402468497359367
  0.6887549636958566  0.5247588531160768  0.4691252242680524
  0.8394717806153449  0.3418796573221980  0.4985542711761559
  0.8584433246812559  0.4850219374408972  0.3197403368499840
  0.6447663512402237  0.5198020219508025  0.1234476972211038
  0.8487737893726098  0.3297146823160376  0.1350091461000251
  0.8397552594557031  0.4837110198672329  0.9862961456890387
  0.6572272341075923  0.1699231214879489  0.7819643268228271
  0.8187387163632037  0.9958620281610071  0.7937799127412569
  0.8145717960311526  0.1649431326681925  0.6568063540487976
  0.6645653765997767  0.1603406196893085  0.5110382712125966
  0.8426258369616664  0.0014145546896207  0.4913795682838751
  0.8493093303752175  0.1644634008031791  0.3245697401874908
  0.6686052132300450  0.1683989773815146  0.1218989278640771
  0.8428804092193315  0.9791491948467889  0.1754928252827906
  0.8920426522104351  0.1666536614806106  0.9736922417852331
  0.2857821201415648  0.8356534819171294  0.7960900102320932
  0.5221799307343846  0.6845928628964811  0.8730780374125022
  0.5082112497448428  0.8473475306349372  0.6635127217189614
  0.3262643722136302  0.8084170843256436  0.5445824980988555
  0.4819498622807984  0.6707233306758679  0.5079171699899615
  0.4952355544047531  0.8022713990976563  0.3518371698456910
  0.3120450460511866  0.8307036547277740  0.1492285633546410
  0.4822116814268420  0.6801556619677104  0.1598487871807107
  0.5185461222803449  0.8206401963804695  0.9918473102631590
  0.3233541392486365  0.5337130112311884  0.8286326685619939
  0.4969953742037660  0.3351854960031294  0.8132891840219117
  0.4995389915391018  0.5373026096175803  0.6656889339591460
  0.3428821957595010  0.4756404963093416  0.4763910193326848
  0.5019492499341149  0.3344159695738081  0.5125857450365053
  0.5112018664912603  0.4922294335152245  0.3135627288762637
  0.3211931495225873  0.5044091856960109  0.1436219008745155
  0.5260358421473225  0.3368583936270139  0.1375498990926081
  0.4926433545774964  0.4746959312101706  0.9791187075012493
  0.3249189003425872  0.1316632653874504  0.8489329437819401
  0.4512506261214244  0.9938889517814589  0.8404726266972038
  0.4772872385895150  0.1667367071777379  0.6546031785255970
  0.3201150432987488  0.1879040078154790  0.4770137254228802
  0.4973911190858712  0.9893294789051342  0.4952657222980336
  0.5123718948383541  0.1494131419658968  0.3251937822962141
  0.3650750829230437  0.1911251889714710  0.2055958328100660
  0.4897396195207973  0.0096535266517260  0.1281940751041884
  0.5060328917779318  0.1620669681756584  0.0025993362390225
  0.9819282014427710  0.8191182688502290  0.8549021126226151
  0.1659656405339454  0.6765802739602056  0.8867145760989454
  0.1231459430766333  0.8248307601919223  0.6699160560957689
  0.0262050662216267  0.8433428758259018  0.4958168096980558
  0.1791692788533161  0.6737998979475754  0.5029870996806537
  0.1689262171061919  0.8263426473404989  0.3420223728862015
  0.9794060198668262  0.8055961419322596  0.1559453965032727
  0.1822975055080995  0.6641880138626752  0.1519864294793478
  0.1564593727622107  0.8654897715637594  0.0172545378135838
  0.9956905507546300  0.5060785610892311  0.8034275049577186
  0.1408951111604058  0.3197507775917610  0.8295095015703452
  0.1870656544203761  0.5188559993768738  0.6729698705670937
  0.0136079828442258  0.5236440873535431  0.4788464189597743
  0.1846440398678765  0.3297562608320398  0.4583464696980333
  0.1903706606176366  0.5192274530130186  0.3199903140136217
  0.9865249237428654  0.5148621136868807  0.1386086836545556
  0.1806395874858907  0.3306265756893919  0.1620724685640429
  0.1537226400214894  0.4879546600511091  0.9931690412367828
  0.0101738155375852  0.1611890015758288  0.7939378868108193
  0.1251845454084519  0.9921694140164535  0.8526762247844414
  0.1791519510978644  0.1405705920046208  0.6686107659940856
  0.0019877007573638  0.1739357316800365  0.4824941139094215
  0.1892941940529004  0.9947756508944359  0.5114433277389866
  0.1701544938368282  0.1220283653470028  0.3415740374565920
  0.0414171528334297  0.1779375525103766  0.1987917536030264
  0.1733013437801813  0.9932758075227299  0.1833232501170681
