Cl O  Li
 1.0000000000000000
    11.7780000000000005    0.0000000000000000    0.0000000000000000
     0.0000000000000000   11.7780000000000005    0.0000000000000000
     0.0000000000000000    0.0000000000000000   11.7780000000000005
 Cl  O   Li 
  27  27  80
Direct
  0.6572638160353408  0.6523499010468271  0.6726866593553855
  0.6717186458273706  0.6632990182218484  0.3442477591302364
  0.6917096125154210  0.6525028144401479  0.9876585196315384
  0.6865708804033129  0.3479235857055260  0.6684098616207735
  0.6799562121866497  0.3550846045292492  0.3321866696859667
  0.6620184630634044  0.3382373096798722  0.0060251534752580
  0.6584308889475095  0.0279943188550890  0.6779047428709641
  0.6494264074678496  0.9817018297448904  0.3496109423550186
  0.6744769168061767  0.0204103616054756  0.0097391470791793
  0.3314258200005841  0.6643619626596668  0.6665282617086791
  0.3490004959675411  0.6586163947380577  0.3534471373733185
  0.3328253398938891  0.6985905954008605  0.9768993030673198
  0.3425779310210149  0.3283249631251466  0.6638993416146122
  0.3299628392272076  0.3301855713521903  0.3316357239848793
  0.3094706834068791  0.3351303783507141  0.0107121746867031
  0.3356981845828085  0.0123264829229823  0.6540207801344765
  0.3221991343485015  0.9777421150060506  0.3218798940249586
  0.3280643771418758  0.9881772483940854  0.9956958423066533
  0.9853704173193401  0.6498933678282593  0.6611620015927419
  0.9994118415366673  0.6431804820070961  0.3422136911643303
  0.9919589838331173  0.6560723320632124  0.0127003739483229
  0.9766246654428782  0.3177420364829786  0.6726449998685635
  0.0184246125992645  0.3423997968595356  0.3003586598122216
  0.9915674665134275  0.3193419591554569  0.0034922660387237
  0.9906101428168665  0.0055639645195781  0.6576857218687554
  0.9899891864554817  0.0129488461523624  0.3371811522824795
  0.9973636763058957  0.9963895069440641  0.9940032551729735
  0.8343901565338221  0.8396671884484951  0.8209991692351211
  0.8350605139515099  0.8290822780212402  0.4964963415345793
  0.8337124307715262  0.8471029817494407  0.1679530091945052
  0.8485240179958948  0.5017499655058183  0.8538409337736145
  0.8250644233263358  0.4954652938655275  0.4955129914126913
  0.8421852173625222  0.5015036117863696  0.1440110207442296
  0.8276624530526232  0.1500569239451728  0.8474236724157896
  0.8358812341816928  0.1785238654502513  0.4880948092650673
  0.8292603312118999  0.1490858004170850  0.1821096032142559
  0.5144504798723559  0.8270268337588892  0.8361228989700813
  0.5078890904551658  0.8408036948761636  0.4960240792276987
  0.5174976142510415  0.8386688992103415  0.1703722351078188
  0.4989715311506345  0.4989173228289632  0.8537921893400539
  0.5234271478753909  0.5056047433272779  0.4986366027307422
  0.4992400303893171  0.5046754007422420  0.1787741519887251
  0.4955840359306335  0.1467287499720777  0.8438837901127969
  0.5022203233562015  0.1792774203853535  0.4929057310129391
  0.5070323382101416  0.1585885864435653  0.1616314047390020
  0.1503220005244855  0.8389531877588985  0.8222534072348778
  0.1496289712772346  0.8493628773319586  0.5117130662561578
  0.1545444263535563  0.8365226056880984  0.1848140488405548
  0.1859978753359440  0.5017672932612700  0.8242971107283480
  0.1614799515652992  0.5034332678800557  0.5039468715247406
  0.1752372784722804  0.5044692490348579  0.1680760645979997
  0.1719123332106275  0.1602874453365700  0.8062341402321767
  0.1524055011759210  0.1695334324078387  0.5011354432026911
  0.1663006505396702  0.1666493327749576  0.1443151775077115
  0.6777446156981829  0.7724414891363008  0.8194853387868675
  0.8571389083757592  0.6576822748746495  0.8515930218724368
  0.8416339680208603  0.8068477718562854  0.6860387880370419
  0.6691611419964273  0.8764488311401295  0.5010786826579635
  0.8005438680040453  0.6712426200195966  0.5197016878297525
  0.8100155106289338  0.8249596487276569  0.3090972938475494
  0.6750593399134879  0.8172691212274066  0.1454837686227526
  0.8535864755956871  0.6665897937975170  0.1565712446862236
  0.8430929002532433  0.8087956058990320  0.9973987623923422
  0.6655790334108734  0.4855151946660383  0.8786607572461376
  0.8314458955817789  0.3475692169123734  0.8750731021594225
  0.8339028741398560  0.5008551974608660  0.6586914604223368
  0.6724856419185710  0.5194583647817873  0.4949857094337103
  0.7969638241743980  0.3405381562545385  0.4992529930969881
  0.8405576229123539  0.4982285040643455  0.3163411660627025
  0.6741763936082363  0.5383834315970941  0.1549981233551216
  0.8229071987434106  0.3309331749320322  0.1519299061992130
  0.8266456214967198  0.4895047079317586  0.9999606516155412
  0.6523000213795580  0.1774734310041026  0.8489261669492617
  0.8169221596220414  0.9929986539653766  0.8293192448598460
  0.8190354170497784  0.1459560049526666  0.6830512886671892
  0.6768944220895681  0.1466997725399174  0.4750606934784428
  0.8441873828254002  0.0147735159870752  0.4808121722699023
  0.8580568745606039  0.1855066877421497  0.3361212847358163
  0.6603911520111057  0.1607474506855931  0.1692287247042318
  0.8110997908777875  0.0026012169172238  0.1653203037146095
  0.8214515863146421  0.1655104883148655  0.0001437291696008
  0.1609167590277067  0.8622772372759984  0.6573332963752796
  0.4763615228085413  0.6620777758311882  0.8227576935010162
  0.5720000042686748  0.8600173416934801  0.6762601445486235
  0.3425386601733788  0.8335555919356724  0.5303933987684133
  0.4818823967050165  0.6794690124057341  0.4843503946710878
  0.5171526380729935  0.8223395139675459  0.3458976610412784
  0.3426343271970529  0.8252662042516775  0.1726858750720243
  0.5077162582401574  0.6729402137435408  0.1699927653605070
  0.4782828389077810  0.8130605818939434  0.0029754944517124
  0.3451497666870748  0.4912527869618906  0.7942068965906117
  0.4612507079193502  0.3299369302070804  0.8345893116417799
  0.5307327400979883  0.4700410232226893  0.6583674152012248
  0.3238298461752347  0.4885574303101218  0.5441881949222884
  0.5244094858620304  0.3269612323342234  0.4861738980199268
  0.4845700206434879  0.4755280918018696  0.3293533589998477
  0.3461587035880410  0.4605491378928336  0.1675685799844765
  0.5195675522901491  0.3144120710304938  0.1817448499134552
  0.4815355986835215  0.5261001582231063  0.0191836189333259
  0.3121178826635311  0.1335449798676320  0.8078841635994484
  0.4731000586696649  0.9937129886596053  0.8409405008105924
  0.5037722100897932  0.2034784648524446  0.6573241061872247
  0.3006011397985295  0.1711246912025912  0.4950178953346080
  0.5054389944167775  0.0069590632796013  0.5057855973877149
  0.5007577474369245  0.1621865956738708  0.3380830052741702
  0.1968935112844426  0.1667387751668543  0.9844165049366281
  0.5007834556722326  0.0030618112024445  0.1688330607929464
  0.4749086633876483  0.1724115806854596  0.0004885465689317
  0.9949734199174358  0.8518585599419326  0.8217470157274227
  0.1746792680671595  0.6953006700188006  0.7807929466879860
  0.1513859570975521  0.0022705217246178  0.4795773267815042
  0.9973706296750519  0.8376880996692796  0.5083936270102558
  0.1332951933674610  0.6592944848690427  0.4905599253905409
  0.1542402695900743  0.8272817298998337  0.3297286789926412
  0.9849807971206564  0.8829646339857338  0.1549031445834164
  0.1686231264445938  0.6811056755877276  0.1509733675400538
  0.3478827747700821  0.8397330177250478  0.8290909782401977
  0.0159207721791888  0.4984151013187316  0.8530142217027615
  0.1644638983404302  0.3452435730241223  0.7598150266765640
  0.1574457930137742  0.5402402949237189  0.6524643590349724
  0.0103559690825970  0.4995807572415524  0.4673755505377135
  0.1532302598257448  0.3180610210278488  0.4875359486663378
  0.1866055815817589  0.4793039230739580  0.3406020884510861
  0.9943111159334024  0.4791841267459631  0.1571977766476579
  0.1532287315015198  0.3200067295865738  0.1327305001248406
  0.1763610927239345  0.5307004748685015  0.9928236893489176
  0.0055561384392934  0.1578400921847048  0.8374733303038410
  0.1559492903209724  0.0018825148593985  0.8214921195864779
  0.1551305741185812  0.1285495762280431  0.6550053853040723
  0.1548237554393961  0.1762112781067040  0.2972727201681143
  0.9923515379588522  0.1898052666273063  0.5050909892094767
  0.3152264941372016  0.1390689508979672  0.1969897322376428
  0.9896082782109481  0.1566411876189756  0.1349032609838282
  0.1588841080511484  0.9825233445012431  0.1317090329894998
