Cl O  Li
 1.0000000000000000
    11.7780000000000005    0.0000000000000000    0.0000000000000000
     0.0000000000000000   11.7780000000000005    0.0000000000000000
     0.0000000000000000    0.0000000000000000   11.7780000000000005
 Cl  O   Li 
  27  27  80
Direct
  0.6491954769346032  0.6689809475891347  0.6694607515061851
  0.6782887783381236  0.6662762792930813  0.3312274387254482
  0.6622171637003780  0.6695568120600366  0.0034586925420604
  0.6538510561645583  0.3612950709232243  0.6638837243461313
  0.6881001340377688  0.3265802691368375  0.3235081260987347
  0.6586958642005449  0.3508067586840721  0.0019148706286446
  0.6544863937026530  0.9939274241434143  0.6726587750076949
  0.6581041294489490  0.0076602383998495  0.3419510319244322
  0.6697716602232501  0.0279460445138361  0.0160452557224315
  0.3516158921797072  0.6728751581998703  0.6812673496636094
  0.3197192392934191  0.6450022085079915  0.3369316305581049
  0.3070917792068770  0.6693057620330356  0.0048515079882218
  0.3406323624062419  0.3241546667714593  0.6548220774676448
  0.3264190888125836  0.3259997893292032  0.3356602672299461
  0.3224401219961511  0.3415685954182731  0.9992559285472120
  0.3366402985596958  0.0247437346195496  0.6708087942007588
  0.3269015736854725  0.0024322055947796  0.3327931309838273
  0.3141606532375903  0.9860578239817649  0.0008737835678068
  0.9859295431137587  0.6721759346848994  0.6577797795757860
  0.0077774743419583  0.6465128810942704  0.3224863350801144
  0.0024082802989700  0.6700209367995204  0.9989829071791738
  0.0146286697099777  0.3332799769570671  0.6629470539018973
  0.9706038126911016  0.3152145773362998  0.3122732426576939
  0.0370867236568979  0.3542080189434507  0.0145387480726997
  0.9820878534662292  0.9910882715391589  0.6729720511097644
  0.0042426331050869  0.9767502952918894  0.3195550092165452
  0.9970383689051245  0.0085031522256906  0.9970158399770658
  0.8284356011711508  0.8526553173195280  0.8223071819590237
  0.8456555034908555  0.8272207633825667  0.4935000669305247
  0.8545993783118441  0.8309155428639668  0.1609933748995478
  0.8239463360052046  0.5065044146169256  0.8267707793750716
  0.8342342454651833  0.4844260201926763  0.5017930173305936
  0.8340738422710247  0.4932667381891527  0.1697002481307824
  0.8376723474476019  0.1773305220171289  0.8138583627307088
  0.8347072769948528  0.1457710113820664  0.5020822450991624
  0.8483309413209368  0.1651471868775633  0.1615927512722688
  0.5058568425777240  0.8392792617606006  0.8592915755836080
  0.5112689726631164  0.8216725618343858  0.4997780989635863
  0.5230798217885839  0.8440924102060188  0.1769150113361929
  0.4877509575470227  0.5030932354321132  0.8274508532911438
  0.4960509928938300  0.4991531953373324  0.4931815277251637
  0.5078045146788308  0.4843485311180625  0.1806923405684488
  0.5090993595447514  0.1634234800642116  0.8510563573781049
  0.5079660919498777  0.1648066438519031  0.4808275263400210
  0.5020650195687117  0.1798331276322016  0.1693397255553197
  0.1648967564671097  0.8387099559261082  0.8478608439720111
  0.1712451723853417  0.8185300033444857  0.5162215316061664
  0.1652347286692391  0.8432813255034004  0.1815922097750527
  0.1518562541070681  0.5060440955059755  0.8309601286242262
  0.1718838904551661  0.4894666966419239  0.5029211432784055
  0.1663968016332808  0.4992942465055425  0.1587923349817213
  0.1562397410182090  0.1689130789815128  0.8252259371028084
  0.1641550941211756  0.1566920418039461  0.4859299025540082
  0.1753584900346402  0.1632047576370429  0.1594408201566923
  0.6772294775871995  0.8254382717539908  0.8257363771512570
  0.8315493340491776  0.6783616599833114  0.8391222301793883
  0.8374218237309302  0.8067301257651105  0.6426299772368286
  0.6696136051828675  0.8092609497109072  0.4895934677843494
  0.8698279652585331  0.6697953116099581  0.5213932188419604
  0.8560663266553939  0.8101558392120891  0.3302881772149786
  0.6809338116253442  0.8308412926221480  0.1423192062909547
  0.8555635788348330  0.6790422197243028  0.1352627714024438
  0.8821257324092773  0.8268278119937469  0.9770486587836440
  0.6561496557989732  0.5203094940649240  0.8146548726857511
  0.8133049889165019  0.3384734655861109  0.8194268069838567
  0.8182338446635116  0.4556488288699208  0.6587725223127787
  0.6709186118866813  0.5439855642214003  0.5154646163820396
  0.8232063436824304  0.3095034827412494  0.4871475417431844
  0.8563691575217007  0.5057434103663955  0.3149410894734124
  0.6690207773252033  0.5136051506652569  0.1449669723433459
  0.8351211998260183  0.3338583110379750  0.1474402766429788
  0.8550054469734824  0.5116344828513075  0.9829169088838748
  0.6624739626555897  0.1466921151861808  0.8344728047317432
  0.8505467887774465  0.0022681286659617  0.8222726074189403
  0.8202698559290946  0.1464978459466122  0.6426594911006703
  0.6514001909033813  0.1654764243524994  0.4665813988362013
  0.8134769709379016  0.9935315293387754  0.4665656904971467
  0.8344446076552006  0.1540220087760912  0.3395625546799634
  0.6790696204395215  0.1353039337404247  0.1831984076860708
  0.8554887617972751  0.0118026290015723  0.1694276396229915
  0.8376086234123659  0.1528043797082675  0.0164574984090849
  0.3286421629147666  0.8293102153892623  0.8498308640194017
  0.4858240544612120  0.6590929125230746  0.8677948072028744
  0.5126762455124237  0.8565774628631180  0.6953629928987044
  0.3274375802702942  0.8387836393721881  0.4945179106216764
  0.4889226862813337  0.6582196422307973  0.5119281753388911
  0.5435676659127546  0.8396578813143036  0.3331926005236465
  0.3251617941643769  0.8798099343829471  0.1732628629914530
  0.5084538601687629  0.6605253268119510  0.1932898819370495
  0.5305342383780990  0.8378115037088518  0.0118018862847343
  0.3235865068638435  0.5083785652135921  0.8508292342283751
  0.4995860574330406  0.3373065141301720  0.8469927558122056
  0.4948490620437083  0.5053984746737575  0.6778401382564633
  0.3337197620578741  0.5174306980207443  0.4867824038309892
  0.4572725288134289  0.3350647560113044  0.5048497062660235
  0.5248937300952687  0.4802499096725701  0.3284341276243442
  0.3331306588579239  0.4736015171094319  0.1772818091501953
  0.4867346523014485  0.3263384295405966  0.1539133471383978
  0.5151303900918054  0.4855300978069875  0.9913011431294081
  0.3067785031048074  0.1356921179722247  0.8195251055591766
  0.5025637188482793  0.9861936259635433  0.8995670281817303
  0.5184192628532072  0.1823626560448804  0.6794887446343871
  0.3501664740186587  0.1630885948745897  0.5189143376771090
  0.4937148632844061  0.9900579292428591  0.5027513879545521
  0.4585194389539873  0.1851609670941114  0.3258970891681225
  0.3250156013491052  0.1287122511152515  0.1576998463160037
  0.5208363227970891  0.0152448389879301  0.1793271927881779
  0.5323053940918934  0.1798467307299394  0.0128852138612852
  0.0176801866342886  0.8534198438007224  0.8261415551338769
  0.1487002949464799  0.6790561467053201  0.8540423183023801
  0.1804554816891061  0.8191019812160338  0.6777621228715204
  0.0159590898647086  0.8223157940274179  0.5104185958586805
  0.1730012877693456  0.6565312386949083  0.4930775207070430
  0.1743137235458824  0.8333155179648569  0.3289880490030617
  0.0288377707760748  0.8555720481928158  0.1719263181533006
  0.1998603410975412  0.6660912204842728  0.1881013932561327
  0.1826296291733839  0.8387356236760062  0.0359683309083605
  0.9971185866331095  0.5067761931738128  0.8076592367616086
  0.1407808629384625  0.3534998886382943  0.8452155272869210
  0.1635119530203159  0.4902233689535911  0.6749259579640010
  0.9829307483145344  0.4765309604014391  0.5034268870193017
  0.1561560677972278  0.3282423571562696  0.5033136088423061
  0.1884243058972430  0.4930617605586567  0.3197054529998602
  0.9919220220617876  0.5085259725911621  0.1895533215125973
  0.1707412707305977  0.3355946695419310  0.1401828721795553
  0.1578051498787186  0.5006594954993383  0.0032387795908059
  0.9932553211087155  0.1893347092177364  0.8618020758536177
  0.1602116633733128  0.9994976574246867  0.8452637858955623
  0.1356966747948883  0.1615487120650435  0.6375246455879162
  0.0091857700804509  0.1286410474005300  0.4907286381934899
  0.1799021271061276  0.9889905573459139  0.5235078122882253
  0.1639543269733127  0.1456145960007863  0.3147843502088527
  0.0262186936972981  0.1404598721517545  0.1549041668184185
  0.1504603070511900  0.1721194019920590  0.0140634012836498
