Cl O  Li
 1.0000000000000000
    11.7780000000000005    0.0000000000000000    0.0000000000000000
     0.0000000000000000   11.7780000000000005    0.0000000000000000
     0.0000000000000000    0.0000000000000000   11.7780000000000005
 Cl  O   Li 
  27  27  80
Direct
  0.6780648501590657  0.6350405112050049  0.6553232972491563
  0.6394601089726915  0.6812901123492239  0.3465284847197425
  0.6668288533692517  0.6598884315520221  0.9680016350143336
  0.6567024806949099  0.3378901932516397  0.6413130377436121
  0.6562998532931157  0.3727982116569367  0.3017230183905756
  0.7011846507830483  0.3348085045755755  0.9947902190584472
  0.6654710941762937  0.0060616096965995  0.6646025127206284
  0.6891910910025485  0.9933232765194461  0.3265497041400824
  0.6945003476612985  0.9800041504053157  0.9972833890426672
  0.3389933881791694  0.6563624762300467  0.6690055034780048
  0.2799125233948004  0.6717911420726300  0.3586693304215823
  0.3404877046598347  0.6779990128902759  0.0137810639109597
  0.3439904213565080  0.3068579443528532  0.6679168912902884
  0.3238178776049037  0.3341352524510773  0.3223169950168884
  0.3375187880931418  0.3301453545739628  0.9893960701883263
  0.3393500646406883  0.9905535209684938  0.6819704296990521
  0.3409003724432924  0.9948936584432400  0.3551328084076141
  0.3140597399766168  0.0148051772586785  0.0059813953365415
  0.0318204920211806  0.6529763979993933  0.6622053715984337
  0.9881897579376743  0.6713200943280474  0.3318152365561037
  0.0008818999505773  0.6460299923337306  0.9998690960223058
  0.9918433042942260  0.3365413610915722  0.6733151348800734
  0.9795564757951783  0.3245459997103304  0.3417260244225468
  0.0025725183230530  0.3474186369066657  0.9811734998779206
  0.9984797561917718  0.0038685542607134  0.6809527884349501
  0.9877544499538801  0.0056729231926824  0.3490316571305543
  0.0017678568837543  0.9917237068291356  0.9870078548338532
  0.8467763386881667  0.8317666078753440  0.8118035766414449
  0.8305240376658853  0.8408321818385941  0.4924555537607544
  0.8391126125292926  0.8309160094126298  0.1534440203089130
  0.8348295800415506  0.4843356779668571  0.8182346030386471
  0.8389106713045418  0.5096945241872418  0.5011494716608100
  0.8227380455690106  0.4979234722197395  0.1659394574736601
  0.8343704754928988  0.1636814236987024  0.8401279791394979
  0.8123677887852260  0.1629864916371846  0.5184242721963856
  0.8381657397617555  0.1671171370419349  0.1759382707426523
  0.5280718313983780  0.8465711506383841  0.8156679899904687
  0.5158585168127563  0.8419724938947961  0.5054507630684323
  0.5040056438317774  0.8444784597988934  0.1503094070807124
  0.5106060206987337  0.4594994579033108  0.8142850083871219
  0.4958901409834493  0.5096346867513593  0.4837405429621232
  0.4944986979294262  0.5186394111434787  0.1671479469601912
  0.4985535951321899  0.1501525357172740  0.8564172028556393
  0.5032483237535512  0.1631390609045211  0.4942059809446626
  0.4883723242419775  0.1737483536699087  0.1874331312435845
  0.1721726087793979  0.8284482617355101  0.8499809943259653
  0.1671877718318019  0.8411248913524171  0.5105070668859144
  0.1571278863219242  0.8495330632291584  0.1685794199632865
  0.1847444823981005  0.5180899026744438  0.8231861306152199
  0.1502689190203665  0.4920894841628343  0.4982986510348947
  0.1735493151442049  0.5107453230020798  0.1739757000106898
  0.1558261386936100  0.1798253553999429  0.8499979981981376
  0.1551737466765804  0.1730574296639743  0.5135451730181848
  0.1574480247009776  0.1512509453741945  0.1923712379067643
  0.6740340417752129  0.8366826702328146  0.8467337405659756
  0.8366052701212576  0.6610215372052561  0.7974621869680500
  0.8140782163841193  0.8474287125916069  0.6649113354276053
  0.6851576105816399  0.8139336754784177  0.4872245958848168
  0.0173601559704873  0.4781738390603061  0.1666643993452915
  0.8516107824592103  0.6570112549242397  0.4810922708421078
  0.6675420038652399  0.8338082061274977  0.1621008130880591
  0.8299109266178444  0.6479636159975904  0.1482774848415329
  0.8338942051304346  0.8276483510060334  0.9986243186404908
  0.6747620504166467  0.4647021974485244  0.8354564486580290
  0.8350979173385936  0.3168845407344126  0.8066697027785291
  0.8183298321937524  0.5037060438060283  0.6616088190830558
  0.6542137210900345  0.5109093293977227  0.4802282717087055
  0.8418534747818271  0.3249780802478515  0.5111698535319447
  0.8139167605693025  0.8513571738591466  0.6743245576059589
  0.6640868170398291  0.5002763627888761  0.1560652987818548
  0.8334169631181323  0.3399873374862230  0.1986854638963070
  0.8537053356275578  0.4742971181466621  0.9831469295559289
  0.6811489072316110  0.1283091186122819  0.8244473321054854
  0.8442795224867146  0.0031898745609460  0.8745985526904577
  0.8464948841183054  0.1141946901469775  0.6668656066505312
  0.6646119532920836  0.1791679937988438  0.5233173793264235
  0.8066635564671596  0.0020897382645503  0.4844174590162204
  0.8207221960375749  0.2024590881922574  0.3506842310786518
  0.6753212348986556  0.1696076476407898  0.1736592862893502
  0.8552662910929748  0.0032951559206027  0.1700550119418574
  0.8316838636896757  0.1803706533863444  0.0077910393909080
  0.3294155320813189  0.8273620381869798  0.8418669084669848
  0.5013459953115704  0.6906390032111924  0.8251984174305815
  0.4958180769537667  0.8329172032256692  0.6674075443479084
  0.3524639366848828  0.8744743429314833  0.5009878539043534
  0.4597053342050625  0.6894024168501671  0.4929614999287002
  0.4963719983324842  0.8595105305657629  0.3159885788911638
  0.1636816239966366  0.8289711712902184  0.0029065224424981
  0.5339182079907231  0.6717918708100087  0.1420618205824746
  0.5151078363417593  0.8606701946479134  0.9929937441488308
  0.3277609743481344  0.4621589039964680  0.8237007811463015
  0.5164330452651303  0.3115771059191096  0.8366622661075045
  0.5120583538092975  0.4934667573233805  0.6386154543942970
  0.3236654702792069  0.4679633377041212  0.4990518416013076
  0.4504935269411306  0.3530251374451515  0.4682266148462188
  0.4682379987173508  0.5319617020780135  0.3325174155059997
  0.3286181314472580  0.5194408198331228  0.1536292916661236
  0.4982434364066852  0.3282235526498039  0.1846216624361251
  0.5234826077553049  0.4748488533132433  0.9841360020374771
  0.3143398990133604  0.1694299672979418  0.8419846400390731
  0.5056213760568350  0.0065744560966008  0.8458809558911250
  0.5083678252959403  0.1425073923615597  0.6843223081329404
  0.1496957468292253  0.3315115752175969  0.5284393504788188
  0.5451477271149475  0.9938724503512643  0.4586849324621444
  0.4759070689503362  0.1609392760344025  0.3457164283672854
  0.3297657308772483  0.2004146964468182  0.1792673657588234
  0.4320026256619564  0.9950736195696117  0.1573634634513898
  0.5279259624663857  0.1809492911078267  0.0162195064771322
  0.0138270463603875  0.8439094778476803  0.8117148326228695
  0.1946976787314495  0.6573348952912524  0.8252904002819517
  0.1598875742900780  0.8741479495565952  0.6597618746818648
  0.0029611194280584  0.8587475425301460  0.4758545923881211
  0.1391413927651182  0.6783635840067319  0.5030796135794156
  0.1516957362013194  0.8265419657233559  0.3322550295642172
  0.8249294704448903  0.8379233051348332  0.3389367011343212
  0.2735465368086570  0.7698909745151131  0.1898895632486275
  0.0147408767075734  0.7748262269568925  0.1603410236531037
  0.0072601325824951  0.5052687806294823  0.8011194769598515
  0.1625417674012962  0.3401772950296335  0.8484229538100635
  0.1751786707097054  0.4963205738696310  0.6604839724534484
  0.0003355365336807  0.4931150605672834  0.4828543983094868
  0.1488615550788869  0.1850958067932711  0.6738517285033393
  0.1482098209497687  0.5228093678812749  0.3417742425457782
  0.8164699428256477  0.4969583810177319  0.3194327739277775
  0.1647582322603076  0.1690100829901633  0.3329370872653759
  0.1823184549359181  0.5120513418411420  0.0060910374176572
  0.1762659671215989  0.1468471246659143  0.0343099321641718
  0.1797493317923237  0.0202769056630010  0.8283125551627079
  0.9972191366792743  0.1578128206163037  0.8497916845491137
  0.9946829762503808  0.1711671051460391  0.4944746421249849
  0.1721513336964776  0.9898806547205591  0.4824032693865918
  0.3298833409931067  0.1715705220133268  0.5124341319133648
  0.0014540165162837  0.1712254041363441  0.1927679544387079
  0.1605801075910572  0.0073514634705765  0.1836073207329326
