Cl O  Li
 1.0000000000000000
    11.7780000000000005    0.0000000000000000    0.0000000000000000
     0.0000000000000000   11.7780000000000005    0.0000000000000000
     0.0000000000000000    0.0000000000000000   11.7780000000000005
 Cl  O   Li 
  27  27  80
Direct
  0.6778029914267024  0.6753311436822365  0.6900853402608272
  0.6788802676996372  0.6964130302263694  0.3376545027108964
  0.6723436553533267  0.6728508455280374  0.0019377016509601
  0.6340845381115596  0.3312354018441159  0.6570569379825379
  0.6695909713610916  0.3387121056517996  0.3450700937922848
  0.6464633165675817  0.3170038895732822  0.9805396740294202
  0.6584185771502838  0.0080357729208004  0.6694791572834194
  0.6937860239875124  0.0180757497303430  0.3331999740266739
  0.6571008580277509  0.9920561556838691  0.0058454331234444
  0.3182075723369741  0.6630901775616298  0.6836133426287717
  0.3231023596115244  0.6595611858339093  0.3217988777351488
  0.3199610966547423  0.6697582865194061  0.9660666473107943
  0.3395166427589519  0.3143517713393231  0.6647578702331415
  0.3558813515219151  0.3104730059124775  0.3114613534052960
  0.3471397418089572  0.3392167562866275  0.0027215491614610
  0.3123392931378549  0.9870127091469638  0.6743797946997052
  0.3487475793790776  0.9885830205375825  0.3123729431380757
  0.3384362086240421  0.9926488892864382  0.0116485769912406
  0.9770792010289547  0.6679860781849534  0.6591599121161519
  0.0014140475618318  0.6790494451868087  0.3574005326688457
  0.0180220189199367  0.6498568330727199  0.0127966635113191
  0.0144045387377910  0.3228346185546876  0.6772811411172183
  0.0008911756459033  0.3408475288414755  0.3542623061178086
  0.9851452636007390  0.3500448423286510  0.9756766159297369
  0.0099014357852465  0.0419094485652285  0.6704453415914954
  0.0131808912607468  0.9921049058106904  0.3283991736312854
  0.9995073356253491  0.9916776341807683  0.9916604853998804
  0.8182213321942193  0.8377800656048706  0.8321023284104098
  0.8345884498390738  0.8612381218288522  0.5074711619603769
  0.8281164522070179  0.8510585513258572  0.1605124336306557
  0.8341939600046763  0.5108697325171911  0.8408798891673890
  0.8082392495208823  0.5148844681933002  0.5173926379750425
  0.8424902302083598  0.5099726163184627  0.1626073410463401
  0.8283927246444078  0.1755337783410889  0.8437286045519879
  0.8267365474948263  0.1784238698146402  0.4968766969763777
  0.8378920592896912  0.1740179033796335  0.1572454634760283
  0.4910396254037519  0.8271592041335946  0.8258998016668750
  0.5060820604355644  0.8242500845173740  0.5028155827304218
  0.5097094317094245  0.8219410396471960  0.1562330954365702
  0.5161717938139159  0.5243137630793978  0.8402144709697132
  0.4840384429784483  0.5100069479460869  0.5047307450473516
  0.4909150922827948  0.4899614474108554  0.1617742221593649
  0.4903425476155076  0.1640989981884987  0.8242120458975448
  0.4903322643213843  0.1533262658232074  0.4788249409387580
  0.5025801939324996  0.1415111758510493  0.1604893367042883
  0.1655114338471630  0.8289441248867664  0.8242177138549356
  0.1770288548427810  0.8218795018240964  0.5152582066779100
  0.1717959739098716  0.8232570583825121  0.1707013360206407
  0.1719729153939883  0.4872780744404273  0.8441605029051641
  0.1531224733105424  0.5040878190720904  0.5127056825523887
  0.1638397811496340  0.4841096862589893  0.1765684209001669
  0.1596471424609222  0.1618205805309357  0.8588918480470434
  0.2063885300009625  0.1385454171463312  0.4615761320363603
  0.1792614835017086  0.1690084715455025  0.1651374160120530
  0.6549678842053759  0.8365693899062031  0.8158621730111086
  0.8247971344173458  0.6824653206791733  0.8279506305924936
  0.7876393012966043  0.8425744288200797  0.6625733989693305
  0.6798366140530991  0.8700796495335273  0.4791474072288827
  0.8272780803381038  0.6765235604610238  0.4877673177995789
  0.8595073815951152  0.8632828779429810  0.3080628259110879
  0.6643101354601153  0.8272753972601051  0.1614785572106167
  0.8535681719577913  0.6760806500763453  0.2042862102584733
  0.8361006608709298  0.8430756381950629  0.9908746541042927
  0.6806507756468727  0.4893774858579668  0.8212703760117372
  0.8298131147665339  0.3327338275938896  0.8100379419379976
  0.8188164677202499  0.5207255007115339  0.6632122992234996
  0.6491539769117981  0.4870847161225823  0.4945112964155714
  0.8888580082641763  0.3330929129372995  0.5129028060133575
  0.8411778551599381  0.4819130693721980  0.3314067942498753
  0.6556466221029201  0.4911531759376738  0.1727364161217951
  0.8150386931484845  0.3571071982083650  0.1469904180475636
  0.8394050800297462  0.5114058403155377  0.9937653648780992
  0.6648592795604606  0.1867071846871448  0.8327690421412035
  0.8223364312015549  0.0073526942282099  0.8490232864631617
  0.8260763114296218  0.1660093933484087  0.6534255181676843
  0.6606446269300972  0.2320229088804154  0.4971606616416551
  0.8547519653442627  0.0299545371691870  0.4798539586030516
  0.8313237063819926  0.1859856537113004  0.3107398831575664
  0.6848619060465718  0.1515240375572886  0.1535988312683920
  0.8863369008167639  0.0155891535645611  0.1647801322693851
  0.8488759129464363  0.1924507485809623  0.9988775078809405
  0.3329825607507623  0.8308120407303031  0.7989995139486615
  0.4943201581707072  0.6709507842690131  0.8390431470895015
  0.5113207105393894  0.8397086285924887  0.6463031629104484
  0.3417551013169099  0.8297349668844181  0.4981889505685697
  0.5289312160941380  0.6621890128219080  0.4604420142478780
  0.5018916180803416  0.8277915862367643  0.3233194894895663
  0.3425081704270930  0.8117756390376777  0.1612982250734180
  0.5457056574483385  0.6667256459174767  0.1463106275293611
  0.5042313104058396  0.8307590858141094  0.0002982664835551
  0.3252057790846475  0.5169982924167763  0.8348838380145180
  0.5088904523518688  0.3488860689255189  0.8438751617359490
  0.4961424469572482  0.5163236030602255  0.6660057925089484
  0.3185631556924248  0.5147088019995965  0.5093167703430400
  0.4585549016954668  0.3463992526203205  0.4940652281689182
  0.4886969776433285  0.5159814203754630  0.3054778729722094
  0.3274641969497030  0.4467270781422940  0.1856293592839796
  0.3269655583982504  0.1470249445580811  0.1414155467355888
  0.4927773806543507  0.5091282930942883  0.9929110955273561
  0.3258576953981104  0.1650895648347073  0.8318605495422835
  0.4855055532636381  0.9862718223496636  0.8169994891469755
  0.4736491985374048  0.1968513911845626  0.6450844711006140
  0.5186781645721125  0.0006103081437722  0.5087949943798100
  0.5253100795734076  0.1346533218982648  0.3219214270710192
  0.4970790769160723  0.3088213226433984  0.1724222898261168
  0.1731731660995978  0.3356277044532698  0.1612524158320776
  0.4977397988061957  0.9839805784081659  0.1525396620950501
  0.4896632834076343  0.1393056218100152  0.0064739855598682
  0.9816145499779272  0.8094809260026165  0.8229067962812712
  0.1718849001127917  0.6658701487201607  0.8386841224742065
  0.1656571003521057  0.8218463847587704  0.6810512639465057
  0.0030575578387804  0.8560019008496234  0.5429841538463183
  0.1513704773169993  0.6703588875757774  0.5254845783147890
  0.1587884367948688  0.8088144551842823  0.3413823182868029
  0.0040053563937777  0.8463041067248432  0.1580776107131651
  0.1679573497669755  0.6652866325067812  0.1997086059280513
  0.1577757448721312  0.8226183605553926  0.9958612499531750
  0.9940562345373880  0.4704618926285846  0.8117503128365676
  0.1816736042255787  0.3103653956928728  0.8649470078984184
  0.1829346032887942  0.4972408050878157  0.6919181957393611
  0.9915962771387582  0.4839517121894266  0.4999223738803055
  0.3439409895700686  0.1523123897022292  0.4583925213407870
  0.1626295912758856  0.4876213502312580  0.3389233964290491
  0.9949721125606982  0.4934450549940399  0.1940875913701042
  0.1721697352143826  0.1520591534630918  0.0122937132637086
  0.1676160476398791  0.5176199863717235  0.0184023467505918
  0.0152244353429156  0.1325242852820060  0.8350142010345055
  0.1771013642119729  0.0072483519402883  0.8117378433303081
  0.1815299012630178  0.9976442353608349  0.5061869647572691
  0.1573724190970158  0.2945420780742526  0.5750624445242756
  0.1856700607391026  0.9937311819546979  0.5067425865232039
  0.2029825329486216  0.1739680253545948  0.3294263492094269
  0.0300777579642499  0.1760560603719429  0.1392230796033158
  0.1862806616917278  0.9988259744290443  0.2201250540318034
