Cl O  Li
 1.0000000000000000
    11.7780000000000005    0.0000000000000000    0.0000000000000000
     0.0000000000000000   11.7780000000000005    0.0000000000000000
     0.0000000000000000    0.0000000000000000   11.7780000000000005
 Cl  O   Li 
  27  27  80
Direct
  0.6322517163803852  0.6465014023325302  0.6505248031105334
  0.6775691814462830  0.6602389926021686  0.3360047463352973
  0.6509480811149748  0.6721629984484017  0.9803096802520931
  0.6734732725232561  0.3227372309362349  0.6562715855944407
  0.6694639214066682  0.3476523165783327  0.3431226077120307
  0.6669663764678374  0.3488480936461445  0.0043519972414460
  0.6864613159133759  0.0097904504753107  0.6877705300562419
  0.7039553044583341  0.9819208224848003  0.3191931191320723
  0.6563368511188352  0.0181296839225332  0.0189436734123136
  0.3302691206254079  0.6711175032222650  0.6682364817047071
  0.3164431102204736  0.6408633636597060  0.3371412932483757
  0.3299465328790535  0.6599184291263108  0.9867320516277530
  0.3161152796135326  0.3424518847014854  0.6931706359748839
  0.3075500648316574  0.3048437323660474  0.3422045605563664
  0.3345647238329343  0.3248264805158811  0.0006007425109412
  0.3458550925282899  0.0236344661337287  0.6295250209777468
  0.3545462574204700  0.0167407977751813  0.3439263645554512
  0.3428193750352057  0.0102455861886202  0.9727146869327656
  0.0027731015594103  0.6648985394022973  0.6753164892231522
  0.0127505246150977  0.6679543781441186  0.3458654132642421
  0.9920260919788715  0.6913245000577233  0.9952398520887888
  0.0079168500668428  0.3430704207944575  0.6691222215032441
  0.0007847655013859  0.3381844593392729  0.3723153412823493
  0.9920738970244047  0.3628211470599592  0.0109747682333568
  0.9950297488227950  0.9823390430952642  0.6602459573168454
  0.9997897594955539  0.9710691435701377  0.3412431940120727
  0.9880719382906370  0.9962898674886872  0.9852420746769649
  0.8234845097184141  0.8254888571256795  0.8198067310656051
  0.8293980516058398  0.8336574363464311  0.5056633910298053
  0.8433612265796306  0.8022521751232173  0.1620827450622754
  0.8493436746347639  0.4958462851777813  0.8238288755717322
  0.8224271117817569  0.5177931020197450  0.5224046748332699
  0.8372344075526724  0.5070419180138911  0.1751614960133522
  0.8640457083398509  0.1647180201415337  0.8156937372995861
  0.8313316347842894  0.1671564867459184  0.5073394465156645
  0.8338946851163938  0.1664163426028568  0.1654857765583386
  0.5168027926750975  0.8468990803443773  0.8336312030249621
  0.4966410180425357  0.8280880204434448  0.4815254228313915
  0.4982446856154329  0.8204185453563601  0.1720282896531469
  0.4891714599097053  0.4772876922931974  0.8308268596496510
  0.4893605267740972  0.4922729619261830  0.4959792404881729
  0.4989000229460352  0.5017638756062002  0.1578666450785069
  0.5062267485526183  0.1750439251587355  0.8285500411657802
  0.5146260136391740  0.1704770494619460  0.4912069013359682
  0.4993422855641547  0.1919091955301232  0.1723796827686694
  0.1408646585213528  0.8460239477232431  0.8204951449761236
  0.1713273080664248  0.8289494689960213  0.5040850268381167
  0.1622187385978248  0.8321504074470464  0.1642929245613945
  0.1600231034822244  0.4813639657924063  0.8435340962364680
  0.1746849452965995  0.5002503285558161  0.5040713832549690
  0.1649446111273312  0.4967687857285383  0.1564897464080027
  0.1638780331239714  0.1635813112868157  0.8302530194492457
  0.1673971464116679  0.1719227227225756  0.5230266926714965
  0.1640726363681718  0.1738823582623180  0.1659809131218319
  0.6686212175988911  0.8653974309389794  0.8565244068095439
  0.8099791437601576  0.6710792849952874  0.8524113320727048
  0.8713487094962126  0.8196192014226223  0.6546649221012082
  0.6807302822539328  0.8033317590645183  0.5124429968065397
  0.8330884586629671  0.6645690286508441  0.4988272676208028
  0.8783420782373990  0.7853768846128708  0.3244743396444429
  0.6763089111204463  0.8250421411124672  0.1892829486972802
  0.8274381529109329  0.6632477063268268  0.1848875084688563
  0.8287109332284393  0.7932881385680818  0.9846102188841244
  0.6752136998109105  0.4999136923722146  0.8088156710058921
  0.9001569126429777  0.3373207436037400  0.8288016984739303
  0.8393333331452928  0.4698445306476441  0.6590905037173279
  0.6660362241746028  0.4857857417799922  0.5233749481677491
  0.8337893420797452  0.3391519796658766  0.4895275665319042
  0.8468241866037487  0.5366154573500491  0.3450390250766684
  0.6656711267478176  0.5213895829258255  0.1743259378804285
  0.8428591265256287  0.3363103897134261  0.1676938609374936
  0.8097186606326418  0.5072243857564638  0.9917890531859720
  0.6704034258295976  0.2018255096550223  0.8299118893851415
  0.8559943748662684  0.9766685692832375  0.8262111990338907
  0.8088885477873542  0.1563007390475574  0.6613521806578831
  0.6792672205097365  0.2073234485667699  0.4903499871493043
  0.8065009612219043  0.0081922655125369  0.5098560600825746
  0.8094662745871130  0.1568452070830553  0.3286769883507609
  0.6659798279985646  0.2221233759930775  0.1809387842536447
  0.8331367172716087  0.9793641688474658  0.1846245962167447
  0.8180477240183720  0.1830664127777401  0.9871384504985162
  0.1773393711989248  0.8570295825305326  0.6561224778296535
  0.4902236352284811  0.6561602494929538  0.8151769005563683
  0.5067126949280567  0.8709803689688836  0.6837095195565782
  0.3417386575024264  0.8487848907391049  0.5018178843672204
  0.4998662072541111  0.6442923159394794  0.5220482817696206
  0.5028191725692900  0.7807898066965242  0.3339682694875002
  0.3289393975788293  0.8637789052206363  0.1769113361588163
  0.4781040443668565  0.6702145571245063  0.1525992806976861
  0.4965758770179518  0.8460028953100776  0.0000294484632703
  0.3441379848367573  0.5165814546712392  0.8131613749082118
  0.4755050834761408  0.3258842023358178  0.8348074661251856
  0.4644603397628552  0.4884819081399595  0.6720751058476031
  0.3279411285833807  0.5274525969467276  0.4920928030761448
  0.4944624171631650  0.3218711063188111  0.5070688015502555
  0.5245104859891599  0.4788880805478900  0.3266316047127784
  0.3571321820091869  0.4980798652438423  0.1564624187562972
  0.5056142852711363  0.3454738776406018  0.1333237924166952
  0.5111033781208133  0.4867662984085947  0.9788118023205227
  0.3302787763956772  0.1765155900525429  0.8180376805931274
  0.5169211315283347  0.0252936923407461  0.8286223481079225
  0.5233953558579368  0.1736210451838987  0.6681811381493272
  0.3199110904354235  0.1847519418495240  0.4941770729503691
  0.5146317625673846  0.9820171942076412  0.4509513270741235
  0.4679413562798038  0.1792647922995237  0.3280101329210324
  0.1944904280790369  0.1917432458348035  0.0192987557608164
  0.4941288173853086  0.9968020243715505  0.1781114046800811
  0.5015398336153745  0.1514414068707568  0.0082782425653763
  0.9817147484249709  0.8267703822917315  0.8385918803041799
  0.1835338413458826  0.7057720424759650  0.8141138346623202
  0.1705950484569478  0.9994993595048173  0.5094700721842634
  0.0012831465118616  0.8496192140670258  0.5168529915398350
  0.1728741138810698  0.6755906551950573  0.4927661564141678
  0.1592561782404914  0.8186375921733616  0.3149601063683038
  0.0000421234006240  0.8235291203724122  0.1180702765788391
  0.1742739576576541  0.6554730501447334  0.1503050534875439
  0.2255156122737899  0.8608672755090000  0.9489562618614691
  0.9952656905171685  0.4966911347122848  0.8790850634369275
  0.1655439571359947  0.3327534428101462  0.8614993349530584
  0.1573976448907069  0.4972945697473517  0.6666446763569205
  0.0050728275105815  0.5083289896811043  0.5279556698747361
  0.1576642210724176  0.3430774652557861  0.5107944713994357
  0.1657045728785555  0.5193400495333248  0.3290767615311546
  0.9945917251536126  0.5025394141188968  0.1736359652816276
  0.1687200375453201  0.3429451589361216  0.1613311435482024
  0.1560482459349004  0.5089769586670985  0.0041443070884844
  0.0226710644046587  0.1711975075744272  0.7959077887274418
  0.1568031571312354  0.0210267135832120  0.8315474189756569
  0.1955490608206972  0.1653246838880428  0.6752417126710040
  0.1632421389114899  0.1764646189214359  0.3460977185464436
  0.9963532864578372  0.1743916647192882  0.5267649939685760
  0.3283372580768804  0.1838789751978212  0.1707841122777589
  0.0223684030710061  0.1527044909325840  0.1107780749055773
  0.1415164533785859  0.0168081477849447  0.1882165629996176
