Cl O  Li
 1.0000000000000000
    11.7780000000000005    0.0000000000000000    0.0000000000000000
     0.0000000000000000   11.7780000000000005    0.0000000000000000
     0.0000000000000000    0.0000000000000000   11.7780000000000005
 Cl  O   Li 
  27  27  80
Direct
  0.6677533301646000  0.6652013229594810  0.6546238668028996
  0.6651318998713709  0.6883039172842417  0.3456509589551859
  0.6620345635843671  0.6646388996446774  0.0175938538580816
  0.6628694941934368  0.3267160289873147  0.6808371171145325
  0.6521485527888037  0.3487173594337546  0.3382571895097521
  0.6691057857688566  0.3383675680246917  0.9672472683971346
  0.6299298764191329  0.0149267675143992  0.6721319037851050
  0.6805373675740618  0.0069310609940660  0.3142703938320320
  0.6638918317650911  0.9981855668958003  0.9946083003231023
  0.3493040428990354  0.6671487116627184  0.6778704272453858
  0.3435041435572949  0.6694722503096528  0.3349194913439699
  0.3397355186881748  0.6599593530520413  0.9751047855616723
  0.3294102209521220  0.3726071925546827  0.6817277961330814
  0.3305171123024236  0.3083495393728679  0.3288291901567724
  0.3535814479147967  0.3382122255067748  0.0035103856611475
  0.3288534048665942  0.0057407734948075  0.6793724359539387
  0.3205335114262141  0.9946468887174610  0.3261952093864637
  0.3143308024983348  0.9795436566190336  0.9975299406849293
  0.9933318636736007  0.6692956529515204  0.6547694523370224
  0.9793608882999678  0.6544095725728732  0.3373000334480915
  0.0006380158916535  0.6567140830771387  0.9853490239160227
  0.0079179035163040  0.3530987309822263  0.6454197112814453
  0.9979276899177081  0.3075692438245042  0.3436344211717813
  0.0045484059587723  0.3312919734159295  0.9980894977592266
  0.9990760429140200  0.9956419467138342  0.6612467130723696
  0.0133514263453394  0.9925911768718535  0.3489461069551274
  0.0002632590177015  0.9962289434072986  0.0057008269414624
  0.8293409249908873  0.8489638699127104  0.8313360415577558
  0.8292531526221505  0.8433603652945598  0.5042921875881137
  0.8568059841776807  0.8275988284114991  0.1720950267587876
  0.8375335525451398  0.5094326556176032  0.8267516356784648
  0.8048955105894345  0.5065481916160327  0.4991499737307516
  0.8397122343953303  0.4997037282125839  0.1554015764671600
  0.8348968187669557  0.1712830666646100  0.8241340110137695
  0.8323797598605364  0.1721032605844637  0.5046442891983101
  0.8440671689711151  0.1683057999821181  0.1669538756434362
  0.5168123050448969  0.8389893984964412  0.8416326148954605
  0.4847974954897161  0.8310336105903029  0.5085908069586804
  0.5116592815830824  0.8160040499188495  0.1410830914144355
  0.5209655413083902  0.4876741769026527  0.8434381832076988
  0.4986477566552009  0.4952163658609047  0.5177631004625166
  0.4824459004536974  0.5079001613953700  0.1580065190771935
  0.5007408523487910  0.1677590445209589  0.8313534502840274
  0.5108763342403678  0.1644051420698506  0.4900082467114155
  0.4903773971138753  0.1589071120659307  0.1622416067182211
  0.1781122562157354  0.8113525192298878  0.8359016622068374
  0.1650325538575252  0.8150485942444061  0.5222692075589951
  0.1768320265828012  0.8152252725733584  0.1487920397762059
  0.1627739538081250  0.5109223567615362  0.8316562001795141
  0.1617499866987207  0.5128335515082924  0.5100870667390226
  0.1786792138964517  0.5049907583812800  0.1791913094120262
  0.1623350211149726  0.1893957937295903  0.8353629633422550
  0.1726409364610194  0.1643964174640098  0.5219205472086431
  0.1560476774376261  0.1561355011445513  0.1652064646225681
  0.6634821599019687  0.8711076077885935  0.8052510490247943
  0.8429475854447990  0.6549696072484907  0.8259929390963009
  0.8452720147707520  0.8293811580984353  0.6711470557030496
  0.6352533029713598  0.8869493867541437  0.4908728126405569
  0.7993967822121932  0.6862758411590059  0.5132339571677855
  0.8852387256327172  0.8289645632302138  0.3315640200832268
  0.6972217288911592  0.7981603484028809  0.1796081876781170
  0.8643225053860346  0.6792391935146002  0.1407775277829584
  0.8150613160530520  0.8471123911456071  0.9960817459423622
  0.6698234706307573  0.4813816915782446  0.8303653633691772
  0.8432712258118117  0.3268512704991994  0.8016239611488034
  0.8370213311386542  0.5315037626680645  0.6642908920161298
  0.6559409830789649  0.4872940593887820  0.5189405376396282
  0.8218811643272611  0.3379597989758361  0.4935446877545638
  0.8241868084230045  0.5140511906974686  0.3227007719561220
  0.6562678217933625  0.5253509520079287  0.1607142035362870
  0.7976189059203498  0.3426249934906504  0.1605535068229064
  0.8495692171519709  0.5186634910242041  0.9832349415980584
  0.6669277111998151  0.1865851953584443  0.8197637729530296
  0.8238163669221080  0.0108526770644042  0.8214462656190684
  0.8764783306895501  0.1699583132021008  0.6518903324095632
  0.6523274173298922  0.1843739227532570  0.5340743077562520
  0.8171640472742063  0.0202599750886324  0.4468506782654988
  0.8423909110582060  0.1817652453641571  0.3310335397568610
  0.6614251771940400  0.1553959237972287  0.1755989377750539
  0.8635902052911475  0.0056973807263725  0.1954498249447324
  0.8404594331210727  0.1608415859233990  0.9793638456260571
  0.3229648829625079  0.8460398516656343  0.8486535137154019
  0.5282910523526755  0.6868116250740731  0.8175667107267293
  0.4672217264166910  0.8625186280710867  0.6652703555386641
  0.3107099291327690  0.8403522183656408  0.4958061217826595
  0.5128172452780156  0.6724247297999124  0.4906167829081341
  0.4874779130252192  0.8172863038222805  0.3148023113904504
  0.3292015591493220  0.8116542165047165  0.1393889187076307
  0.4761859653988763  0.6694243560697009  0.1354730787666380
  0.5327105206718952  0.8209771157335072  0.9965934954407881
  0.3734193797532961  0.4780977985222648  0.8467950714577895
  0.5068164573321823  0.3277465648544808  0.8040033696614468
  0.4845868499018293  0.5028524809702039  0.6778385652277678
  0.3338315313574937  0.5110690354017272  0.5229748277687356
  0.5073441036798526  0.3386061890308429  0.4797272197711256
  0.4844555152320034  0.5176413558795994  0.3451089402869890
  0.3314721428800626  0.4773365108738650  0.1511286855746065
  0.4673853279582345  0.3321212158249034  0.1741304914713364
  0.5028263367853131  0.5328186073264922  0.9964689555195472
  0.3379956177108494  0.1616574883897997  0.8510172948598106
  0.5072005829016365  0.9916412702289092  0.8257223346163017
  0.5014380515932650  0.1407674824460492  0.6519661210969596
  0.3214476719825248  0.1679014823144593  0.4704057780170924
  0.4505218996729988  0.0154019991730646  0.4747697408392924
  0.5031196130948754  0.1336606027367604  0.3200477832858493
  0.3181982522531038  0.1665760608426863  0.1217665610491240
  0.4813314585744431  0.9815451566029858  0.1541377434252491
  0.5300203056671881  0.1877376530376268  0.9901506390802861
  0.0160950276888898  0.8651700175676672  0.8552165225489893
  0.2153549467556987  0.6696375927238234  0.8298499841007169
  0.1230301556132565  0.8194382653019143  0.6800459512336013
  0.0047234566477282  0.8521263472242983  0.5183537825934543
  0.1569082757965939  0.6765949294501683  0.5113500495873250
  0.1546621351321009  0.8047299968436974  0.3309000796030134
  0.0106201034675206  0.8361550959177790  0.1080084041912391
  0.2010400142976959  0.6580219237596479  0.1336582696595822
  0.1680144156340445  0.8312445395760593  0.9945203891020610
  0.0163598554069589  0.5275567185973651  0.8175371563774773
  0.1372752001323606  0.3392392391432766  0.8685493396901069
  0.1841059389721253  0.4997325943098668  0.6632079477858042
  0.9992828217103562  0.5053676775477660  0.4963885853753804
  0.1540538317264895  0.3313382887248940  0.5164707656920121
  0.1598313223938317  0.5341413466398572  0.3625336582955502
  0.9914608317186682  0.4693869577208566  0.1735669952931694
  0.1741526616679565  0.3452621726083439  0.2208084889807725
  0.1443972719917272  0.4916600869668888  0.9887155559172767
  0.0095907024570018  0.1568505443334538  0.8542077071042529
  0.1326803085318967  0.1621659244104564  0.9972348062316894
  0.1711779759303479  0.1704899169985922  0.6854835466418423
  0.0020114775722589  0.2090141731900175  0.4979958156643519
  0.1611782517396322  0.9892276161201379  0.5102700203065145
  0.1788852036621961  0.1363362126298337  0.3433597276653789
  0.9890352223948602  0.2028308972589064  0.1654117155295813
  0.1574762860979685  0.9847365936343669  0.1634125965938008
