Cl O  Li
 1.0000000000000000
    11.7780000000000005    0.0000000000000000    0.0000000000000000
     0.0000000000000000   11.7780000000000005    0.0000000000000000
     0.0000000000000000    0.0000000000000000   11.7780000000000005
 Cl  O   Li 
  27  27  80
Direct
  0.6734513462143302  0.6568674963996709  0.6816269169350276
  0.6569666184536175  0.6687740125488125  0.3516596519994585
  0.6827022623842586  0.6913882718589489  0.0082308813540354
  0.6713195869542533  0.3017999655569658  0.6576334006792584
  0.6711482122140024  0.3465300682955403  0.3244599746747828
  0.6529170248395552  0.3412340098804289  0.0172728440996951
  0.6795400279851306  0.0135333674312722  0.6358895371972940
  0.6564804291657196  0.9906155611691413  0.3317318425509053
  0.6700670088563040  0.9778615651990195  0.9895238955251837
  0.3548160284901188  0.6474224122036990  0.6784886903839904
  0.3192023696323764  0.6489163238302651  0.3012746281721170
  0.3218881109992858  0.6551177979531415  0.9850666448297276
  0.3522092539152858  0.3409582232679582  0.6988097346192331
  0.3517272346246111  0.3575012095335659  0.3298312752242568
  0.3122707006559297  0.3260444306262111  0.0190107954514983
  0.3213904036122616  0.0202221112964241  0.6967802819900594
  0.3069304929012851  0.0075623963572707  0.3427683272405645
  0.3370792084563761  0.0062646915766892  0.0114614835914359
  0.9848301137071463  0.6804763202902470  0.6741317720231188
  0.9915340788212644  0.6675674258765483  0.3145469803534983
  0.9970600981603085  0.6473055308252196  0.9873176032580028
  0.0117535856483922  0.3256797785389351  0.6821318509677250
  0.9894742659301475  0.3181426704996298  0.3254816037517634
  0.9732395823870328  0.3281696110071737  0.0001122465796982
  0.0130249578327342  0.9969669246149917  0.6806410162323139
  0.9981566979928880  0.9782149927063910  0.3423019353181243
  0.9873433404164813  0.9777549595236488  0.0101156574730561
  0.8402157699234735  0.8415360258564043  0.8187173165205567
  0.8356297446277852  0.8284999667701030  0.4969618692235485
  0.8267143715353903  0.8341148073030351  0.1703490836561792
  0.8259553510699469  0.4962255192932128  0.8193526135732416
  0.8310186183779377  0.5214322213430654  0.5013713376465144
  0.8333730878780617  0.5037933355159531  0.1388177407450783
  0.8439656905332040  0.1641117584083508  0.8526023091022302
  0.8490155166850967  0.1630190167088212  0.4912760172815920
  0.8388274442460155  0.1636315508397707  0.1725392431200859
  0.5093526843222937  0.8330373286030506  0.8369407711817064
  0.4840146476026151  0.8295546116988849  0.4940695915378606
  0.4760795477409533  0.8587097748087844  0.1472815699391263
  0.5179452267558747  0.4889351900701605  0.8389818836089410
  0.5235154118816495  0.5032102241566732  0.5146664223855738
  0.4990565563240986  0.5113841069661260  0.1464938250753348
  0.5378647366953914  0.1490281193505779  0.8443785887531485
  0.5022698833105633  0.1641807151828210  0.5012782616890761
  0.4904976572661729  0.1638481275402128  0.1820816542415392
  0.1751301194047876  0.8333907662317748  0.8172980599899088
  0.1883340917287903  0.8435269363753206  0.5123842193421820
  0.1779107788152872  0.8482013008354851  0.1357302626553935
  0.1544113971091155  0.4837588874976338  0.8347804697076262
  0.1623363553755890  0.5269487633006777  0.4897173289991315
  0.1571902245548157  0.5006159190880999  0.1590966295472269
  0.1505179557211688  0.1894698151632418  0.8509942286196504
  0.1673279938720539  0.1592897841435669  0.4930919903441834
  0.1630060953907753  0.1776532980803836  0.1604452390375398
  0.6783693518714777  0.8326127985944822  0.8565368431812600
  0.8460056693689606  0.6705971920143721  0.8088680259918034
  0.8118401938672637  0.8687341242500924  0.6494555502996320
  0.6502020732493785  0.8497527827149773  0.4730257612790658
  0.8399064613915774  0.6800990772404814  0.4914306715475400
  0.8445409072375468  0.8310039893745234  0.3485445021320837
  0.6648603422263270  0.8619436683834957  0.1504550289181586
  0.8272042449955922  0.6662953742964207  0.1619349199387677
  0.8265992310295380  0.8216847338326265  0.0149304240697027
  0.5073458630372734  0.3410572910660668  0.8275439455943759
  0.8203267454976372  0.3378195108920018  0.8407125539128013
  0.8432363053878323  0.5322479390923541  0.6514213193789794
  0.6867153381585602  0.5327688243765655  0.4899011732456419
  0.8290238212596677  0.3152177008454202  0.5152558899542133
  0.8257968102046453  0.5259470328026797  0.3443176633933302
  0.4812508706080580  0.4842895297656393  0.0039460820577005
  0.8430199513571448  0.3464539962102743  0.1569246885177905
  0.8249028923533016  0.5139130280976558  0.9788870442147372
  0.6798043167411798  0.1401312582118754  0.8580265443251931
  0.8565660456377954  0.9739971543803334  0.8603861959577885
  0.8128168638965124  0.1641071633143233  0.6618989839553188
  0.6734937749239410  0.1573539540248658  0.4913186079328426
  0.8464278512237527  0.0101931237453404  0.4890249070330295
  0.8464911704048894  0.1800280912562945  0.3230236940292578
  0.6568065391427383  0.1453896854384533  0.1911786853683080
  0.8356341170520580  0.9992202160150143  0.1664884759356889
  0.8099830471427694  0.1824378030982736  0.9995784782370907
  0.3374364112282241  0.8372655438457420  0.8182225848111627
  0.3062898922598988  0.4754552084639324  0.8407172502203537
  0.5063249019695567  0.7984027081710383  0.6785815639143791
  0.3358115293005214  0.8554315901956054  0.4877017223801553
  0.4963009168969381  0.6612784627828044  0.5198093244949048
  0.4760608434815637  0.8459280450676887  0.3171926614072779
  0.3203364469354488  0.7981087031240973  0.1440767651314527
  0.4932592075631838  0.6734098753841297  0.1250029043132858
  0.4889250824881050  0.8653902723020005  0.9857415189009613
  0.5169285571416111  0.5120113474222341  0.6871138235725682
  0.3250985635216452  0.1662292161973685  0.8910197242968396
  0.6755612838384527  0.5131861530477001  0.8540233469909152
  0.1931559040519345  0.5318298462639655  0.3346313063968565
  0.5206029319764047  0.3448533245577122  0.5135266771251107
  0.4914818575816695  0.5225918044543962  0.3360790444133928
  0.5057395234273204  0.3374860932984900  0.1778028929645452
  0.6681461380965735  0.5048210981325386  0.1262468995043290
  0.5042398628725439  0.6619144480874584  0.8549901691871099
  0.1202957591470476  0.1858355208842829  0.0137810417735940
  0.5179354697720805  0.0070799981484624  0.8066079684676454
  0.5235622535009432  0.1738401190176311  0.6816354998419336
  0.3222990379101163  0.1956589817214983  0.4603725727145107
  0.4955278075088376  0.0109028696713869  0.5037924461313900
  0.4784880652633392  0.1662888613275538  0.3491942119907052
  0.3308293542686285  0.1768837109229474  0.1449806727576975
  0.4749799235217347  0.0222804540610928  0.1712428193231781
  0.5195197448336194  0.1560984609774013  0.9974095348675969
  0.0074010612196675  0.8365156730829437  0.8299920173622675
  0.1738969540609016  0.6594316398378434  0.8310051242604569
  0.1588303796034160  0.8377063489891037  0.6749194966442056
  0.0026057997344256  0.8421807964950140  0.5165907344051486
  0.1961659133097105  0.6714461710606890  0.5163820321169387
  0.1894729260675299  0.8115607093120608  0.3437003013772460
  0.0342817527343037  0.8431407865353699  0.1738395130309374
  0.1558738110867529  0.6728717838006963  0.1335262470599368
  0.1708632608383142  0.8298333132608706  0.9746498614537454
  0.9902515630278380  0.5056121425572399  0.8286647436829899
  0.1661000916314595  0.3421428668480381  0.8321231693411953
  0.1530560063126387  0.4679611971435017  0.6699823818735692
  0.9957036234302392  0.5221085301160137  0.4923054397999848
  0.3087631459527693  0.4854768048973649  0.5302343580383301
  0.3247795789767749  0.4924237368733568  0.1514161626713452
  0.9957175545230560  0.5188927335195428  0.1505868190488464
  0.1524553040427424  0.3282416750368563  0.1782663901801751
  0.1422296307791848  0.4839307075773939  0.9871055153773871
  0.9993501137017216  0.1863233498312831  0.8313615578095164
  0.1655810990401625  0.0231057415515838  0.8225903127764865
  0.2039764598077104  0.1965161793060317  0.6446973405554941
  0.9981727531464111  0.1874726698911956  0.4975667617333729
  0.1565805244025615  0.9954415460198468  0.4897027947369651
  0.1440840447385086  0.1789621104127312  0.3388563435348679
  0.9971781874589485  0.1801874215870900  0.1816982574094638
  0.1758943422454075  0.0153722527055481  0.1606952364438824
