Cl O  Li
 1.0000000000000000
    11.7780000000000005    0.0000000000000000    0.0000000000000000
     0.0000000000000000   11.7780000000000005    0.0000000000000000
     0.0000000000000000    0.0000000000000000   11.7780000000000005
 Cl  O   Li 
  27  27  80
Direct
  0.6976399073051600  0.6390205178805812  0.6582763994837425
  0.6765017460412188  0.6737593072723540  0.3176841030796738
  0.6980674332340635  0.6647693195694507  0.9953940759922522
  0.6485667322159113  0.3300644924488102  0.6701798387417290
  0.6774973632423168  0.3307758413440562  0.3121561847218701
  0.6512404291733653  0.3404334132140668  0.9807087137361667
  0.6672141096044805  0.0027700850310234  0.6731585527776260
  0.6197472741251847  0.0115513065546791  0.3523879940480835
  0.6499147344250752  0.0035452544306465  0.9885282619120317
  0.3255664597769564  0.7012798719561667  0.6696411803625567
  0.3371640924910062  0.6615406890980309  0.3561234208810575
  0.3589585222499783  0.6557137050170443  0.9951304457566987
  0.3332639710104204  0.3122500821269288  0.6977578522222383
  0.3301751366595028  0.3282057060652135  0.3082325412181126
  0.3272516447227558  0.3454501223006335  0.0097693339251023
  0.3365151923405834  0.9998081154285684  0.6717940325212091
  0.3108277867758790  0.0038772562999796  0.3473626615692008
  0.3308535911591775  0.0105150495930218  0.9838119305289634
  0.9861008204594207  0.6895020184397956  0.6589601170867084
  0.0045243714125392  0.6488220356256124  0.3157702565385669
  0.0153367949778868  0.6541267174330399  0.9972048887465382
  0.0190809071964609  0.3600499708310471  0.6653379861406674
  0.9987386318429230  0.3226394885096122  0.3394278046199984
  0.9941306972983228  0.3419010093241758  0.0025354723601400
  0.9934292053352266  0.0065310372823764  0.6624174901242557
  0.0030228513755359  0.0188677387457865  0.3379645606914575
  0.0067369563143345  0.9830532406255450  0.0058360808297463
  0.8181197909613112  0.8292954669049805  0.8254971747336620
  0.8217213730290436  0.8507292526322602  0.4955991803344901
  0.8397192429860408  0.8268356543682081  0.1469132330821055
  0.8326589113768237  0.4824330331227876  0.8206835404633247
  0.8409663555536492  0.4944113299037421  0.4805412393906730
  0.8424173526456852  0.4950123358142131  0.1555959162809044
  0.8292660720827114  0.1383242549826681  0.8363764140911373
  0.8410167194036071  0.1732745806413462  0.5052346674133817
  0.8277634156075996  0.1633873147980748  0.1614747216866065
  0.5281427589108791  0.8222087388084866  0.8399229360013594
  0.4929913017356487  0.8241682326492941  0.4803346018583696
  0.4897693513568680  0.8465517251228062  0.1668120650984983
  0.5056300370088573  0.4883819997439053  0.8362139866264819
  0.5061748491703397  0.5020163927036219  0.5001111578154092
  0.4947402714447993  0.5022566736115803  0.1955607749353652
  0.4959849144024014  0.1599744251046926  0.8299215013020740
  0.5014152224368542  0.1911236869595410  0.5074252114886829
  0.4840294109072397  0.1486528624009830  0.1562588648685743
  0.1775258094249279  0.8278340245771817  0.8429684104782375
  0.1473496751259591  0.8407104901775229  0.5190178847400159
  0.1535444084280815  0.8267180037669399  0.1845264562151376
  0.1689095830265357  0.5087161207665565  0.8518324480708359
  0.1795251206664056  0.5101056610063126  0.4878388964729234
  0.1641849458085856  0.5039968175013654  0.1704130196423765
  0.1764551120311073  0.1627058441353600  0.8484766124414034
  0.1658232486496815  0.1639329569104608  0.5038700257007351
  0.1760873830526764  0.1754187284368629  0.1770268781508411
  0.6726489115194360  0.8075093771404551  0.8244563758150777
  0.8238841036277198  0.6706022550056975  0.7927916031141867
  0.8212680983794221  0.8446587083251105  0.6536068123019502
  0.6501617359110826  0.8609097947850937  0.4933934947158738
  0.8234254849039870  0.6567209415307934  0.5073527426049009
  0.8302636325834861  0.8472847539550721  0.3356066499314890
  0.6845512981567643  0.8717951069540590  0.1756888151098161
  0.8288019473432275  0.6304875699704233  0.1596918150825788
  0.8117702212088961  0.8185658616226215  0.9863772758777433
  0.6670716009615126  0.5002246299161711  0.8666037118269102
  0.8343296632739818  0.3175254524975640  0.8236089352143384
  0.8059268810222961  0.4590940444894220  0.6480502302739131
  0.6812931943069125  0.4920873054318886  0.4859087545543180
  0.8464179589137273  0.3393601045113055  0.4646750882083425
  0.8356710258759165  0.5090746595569324  0.3252987811644128
  0.6477589268314975  0.4845440638529782  0.1809572219899427
  0.8184516093811306  0.3420042876049175  0.1163489246726891
  0.8661503857739385  0.5168372510868653  0.9785020374901759
  0.6643175809507496  0.1443009338668857  0.8253895645140573
  0.8055825930962173  0.9834374395748047  0.8310367933749367
  0.8652588970471912  0.1769620525062534  0.6677806733490379
  0.6720060436950933  0.2148060525972621  0.5042509529228044
  0.8446633212471858  0.0143980925564608  0.4965486846536732
  0.8706202989139362  0.9966016704082810  0.1825563956823373
  0.8489699972143294  0.1821908646554645  0.3373718340473181
  0.0003867259007573  0.1725687984899660  0.1893230056424830
  0.8105943629627720  0.1658631696785335  0.9914038235515085
  0.3539994643871577  0.8174311365529902  0.8698033547448173
  0.5069747194144066  0.6531125983996022  0.8426591829171612
  0.5072356073960216  0.7943365583393964  0.6735011403164879
  0.3192531649518421  0.8242902556748353  0.5099078577966581
  0.4790868710916721  0.6444996513194147  0.5013243031240826
  0.5001902553884801  0.8440269739884996  0.3151864366846132
  0.3204861076259735  0.8680316642174105  0.1765799192251693
  0.4736751053749692  0.6606014275875612  0.1918357933381540
  0.5351035773824783  0.8319909854983889  0.0045224633853071
  0.3249361221869883  0.4857353065548773  0.8645232475812198
  0.5038291245187614  0.3267857612825969  0.8476905477221240
  0.5273351559535148  0.4893722323854821  0.6803415146935332
  0.3459474426616062  0.5202549889080871  0.4853343880435838
  0.4832304313421913  0.3476441886065988  0.5208616712792320
  0.5274895268215932  0.4881876292908121  0.3403481594440290
  0.3283551352986230  0.4726428917779478  0.1711230730045047
  0.6154939984137443  0.2211700351556137  0.1783924915133262
  0.4868291794312281  0.4988266282257386  0.0078161988239926
  0.3304379072126797  0.1481259144266340  0.8124535853611131
  0.5219641185592054  0.0096291965618540  0.8306573641130349
  0.4929494803071868  0.1570798498719911  0.6544398400967530
  0.3173928603653731  0.1681343202050133  0.5162862936463561
  0.5087593567697090  0.0095003941279024  0.5194256133034615
  0.4846105789668428  0.1683669493704943  0.3444279956593121
  0.3413229562264806  0.1672444407733106  0.1978989490579908
  0.5288401605824029  0.9947113104656120  0.1633949446797781
  0.4851356342482773  0.1708722371439751  0.0036055691149491
  0.0131117522726457  0.8457549722553043  0.8488145846435329
  0.1880109435594002  0.6702665904719344  0.8650738491563229
  0.1506293475779533  0.8314760110840279  0.6836738687852041
  0.9961158766013954  0.8416235171423555  0.5249306574046526
  0.1080968738614182  0.6796368576303482  0.5252439335067222
  0.1320360890611134  0.8441686729232687  0.3575734868086651
  0.9966266835488713  0.7996239528767822  0.1694544162273109
  0.1751329597561864  0.6598986818419260  0.1623685079603679
  0.1781117547629033  0.8502843179770849  0.0125878250534318
  0.9928650772051141  0.5036655658772851  0.8224083808681544
  0.1908269872181823  0.3308101324862703  0.8304469209521977
  0.1789670292904648  0.4708970799307722  0.6783450981588659
  0.0262409290669644  0.5052087077623308  0.4932110674587109
  0.1850983826833354  0.3377758294497667  0.4987977706317389
  0.1564196113921296  0.4986841195827708  0.3392919558269648
  0.9790023326165098  0.5088079416762868  0.1759579013869427
  0.2083698011675211  0.1554882570726066  0.0260734847384031
  0.1428305317274818  0.4837792944593242  0.0126079716055502
  0.0061957619037804  0.1280628837089012  0.8563757207736341
  0.1708279639335552  0.0099911563693692  0.8398779971963326
  0.1582047649364087  0.1392914514259923  0.6677661795722813
  0.0050989096699734  0.1944558183814572  0.4943229992425494
  0.1267041403300953  0.0218907514111657  0.4795075254188271
  0.1722673214702352  0.1755349418060786  0.3301051078182572
  0.1661227495910210  0.3226568162650639  0.1404566199058248
  0.1665542228473931  0.0039721417654667  0.1984925866238537
