Cl O  Li
 1.0000000000000000
    11.7780000000000005    0.0000000000000000    0.0000000000000000
     0.0000000000000000   11.7780000000000005    0.0000000000000000
     0.0000000000000000    0.0000000000000000   11.7780000000000005
 Cl  O   Li 
  27  27  80
Direct
  0.6425767753941188  0.6568730284597470  0.6578879036162023
  0.7049917149000808  0.6625370587657490  0.3338923176167240
  0.6530140760167542  0.7002123359108577  0.0060723368307724
  0.6746364022980965  0.3068217613640992  0.6471035215742025
  0.6691342326610107  0.3178685293478816  0.3466381772846180
  0.6737160879594759  0.3405584963745945  0.9830929193657362
  0.6377507930737514  0.9928066569665120  0.6762622474001763
  0.6715584180370413  0.0054017571914105  0.3286979180659568
  0.6413716057112023  0.0285181937308615  0.0094322880551586
  0.3480725433486325  0.6567746893990172  0.6685345138081965
  0.3499796895543953  0.6605384155335352  0.3124619326638788
  0.3083123688054458  0.6442113784445157  0.9701745627526346
  0.3407048869926061  0.3097073994425579  0.6953115234531608
  0.3324300942988925  0.3555876926773586  0.3345445982988763
  0.3201302016641269  0.3361944323388695  0.0272442034636527
  0.3276195571624150  0.9967095564420623  0.6585934833405328
  0.3373791320227544  0.0108271487788945  0.3387414980769835
  0.3170236144609531  0.0148883060381692  0.9885082465333443
  0.9849613155927938  0.6703657224846944  0.6638460604253752
  0.0011135275092423  0.6702448330506314  0.3292900981570620
  0.0004552956299758  0.6687863866431676  0.9631807309595722
  0.9934183166694226  0.3504447095972076  0.6757958149923262
  0.0041794771659024  0.3437754265625434  0.3366542525251291
  0.9981257195962852  0.3243878746668551  0.0006081396615744
  0.0234616170732285  0.9806439611624139  0.6558895032964481
  0.0137277795470856  0.9928064191147287  0.3491446290136345
  0.0015513901856618  0.0011407758096613  0.9852252150574946
  0.8285484897112192  0.8366553737915412  0.8269812505318010
  0.8175609113967605  0.8523637128459489  0.5110380101411538
  0.8464885465028307  0.8321417364088151  0.1697434133309594
  0.8154140510787782  0.4972356563153922  0.8394390969934244
  0.8270500437187404  0.5035907320835583  0.5164665368175696
  0.8460904939523591  0.5063472621897374  0.1771552999973388
  0.8461293599458960  0.1841296536956273  0.8295485113465384
  0.8569033372375426  0.1880814952874038  0.5132371371233609
  0.8306720304330795  0.1708765928120795  0.1500708036639256
  0.4895307113848953  0.8333110360185298  0.8527301331914905
  0.4975564580793995  0.8310287924897282  0.4695478333033706
  0.5108449436966396  0.8315430381667105  0.1548499038795893
  0.4995478139378252  0.4860637074440938  0.8477071893517940
  0.5007820521450744  0.4982405041899551  0.4997305566028061
  0.4926118939933353  0.4931046465419525  0.1535019421558355
  0.4991565629362226  0.1841356657790025  0.8503614128270697
  0.4897415593998318  0.1705404424533972  0.5036052937313633
  0.5028219095246010  0.1519503215558272  0.1626819987370265
  0.1793386056597230  0.8120223500004541  0.8318305929337005
  0.1793023712178320  0.8186724834362193  0.5141623501965836
  0.1821040425560875  0.8297493725649926  0.1463609332459723
  0.1601783186126994  0.4863791697582999  0.8406625660816311
  0.1552468009499864  0.5130789737265199  0.4890117204394895
  0.1683920491868799  0.5101595708161762  0.1643780843794508
  0.1788699465543265  0.1482946408590706  0.8265937241879124
  0.1783707412071349  0.1732890779046390  0.5332569294232842
  0.1493493216489523  0.1573810445657318  0.1825181390961365
  0.6649180820704798  0.8407916061828623  0.8491368101473848
  0.8371539065051589  0.6827457155030147  0.8183298423121763
  0.8401482074238806  0.8783853052269539  0.6693716711148127
  0.6770754053341629  0.8429934456875352  0.4727529417516188
  0.8280293048142249  0.6716790286975448  0.5075990984505366
  0.8370703446190552  0.8702353492947719  0.3365711359785346
  0.6650872301131843  0.8188770966980260  0.1832479088529026
  0.8402941168412827  0.6745415091215211  0.1790600575639155
  0.8032399263699725  0.8383351134497047  0.9813722135333958
  0.5104882267497107  0.3375334467870280  0.8461951402615775
  0.8188868895429201  0.3432265253746577  0.8573713805863289
  0.8552309659239873  0.4938630192408370  0.6826335983031359
  0.6664058399147360  0.5042994291844537  0.4983706921685317
  0.8141120402952993  0.3456423302708318  0.5097992375679919
  0.8355114943949548  0.4953202106005929  0.3540036069430981
  0.5021616734593966  0.5204943623808586  0.9954556121460316
  0.8373765762597961  0.3471715856602703  0.1485419126431764
  0.8057947176784502  0.4953431658280255  0.0201431144331535
  0.6627727197126650  0.1579898135535575  0.8297672945018220
  0.8347330409327430  0.0169272588218176  0.8352522578396857
  0.8517135935089178  0.1599954708830423  0.6764826094864473
  0.6462001790978056  0.1436734944702645  0.5132253963544801
  0.8490789649720503  0.0231338998951368  0.5166511502868688
  0.8477926625276260  0.2245516837204157  0.3115722252951684
  0.6762342804573732  0.1552927969999815  0.1616313517424758
  0.8427446177337705  0.9979952418002774  0.1506411722404288
  0.8246986511097715  0.1665109296026621  0.9978863360739126
  0.3278392917248319  0.8069939001450064  0.8445358862208406
  0.3322550961144526  0.4625368260232244  0.8833097349645093
  0.4954638482107289  0.8399028704639903  0.6930647451434612
  0.3360454616487072  0.7838785124307067  0.4926589295642175
  0.4782124887275053  0.6518735256724024  0.4929753230428520
  0.5236300337267598  0.8407380844709297  0.3222299487321896
  0.3385019746245700  0.8445791782238317  0.1557694591167736
  0.5045180457737876  0.6566356625013037  0.1645874141915147
  0.5071460347034259  0.8287915687367731  0.9941290207091700
  0.4950866861317834  0.4576061889181776  0.6588983789627459
  0.3370766250397273  0.1732648473867935  0.8248209490577209
  0.6749878966271438  0.5246680032909588  0.8331002153892321
  0.3325573399423152  0.4927708848224563  0.4485455815605781
  0.5189855474991268  0.3268094082485349  0.4886362992331713
  0.4964575221121500  0.4941530162321945  0.3297951738886942
  0.3546442565453556  0.4976057739330093  0.1624906849323833
  0.5938841631582500  0.3942047009429429  0.1782097829844808
  0.5023238984970023  0.6494322554533798  0.8431753945056248
  0.1549849109544756  0.1762819820767179  0.0169167698793134
  0.4694391384531590  0.9959748357624705  0.8562228904773200
  0.4847519350525110  0.1540784270076575  0.6654428049931737
  0.3381017156192572  0.1173588484494520  0.5142523897482768
  0.5142486330806142  0.9757085543700091  0.4916646078962374
  0.5083444433228834  0.1666800472813091  0.3267903670060946
  0.3416948767217231  0.1564799304327724  0.1685321303511429
  0.4996521853246352  0.0004460884002106  0.1565816672895179
  0.4963020176525934  0.1797155901786338  0.0106185168920712
  0.9816682348790970  0.8273974131602845  0.7990662364990009
  0.1719644716381071  0.6466067382086732  0.8313718122683280
  0.1957246502337214  0.8050050138965867  0.6770695264742611
  0.9933792988555985  0.8524509993897665  0.5001422932218355
  0.1506302091697979  0.6641455036170186  0.5142491509154821
  0.1605296307574021  0.8323941224543439  0.3388255053025966
  0.0094429916372722  0.8461838579319771  0.1603345534555261
  0.1517451368739715  0.6612740354320369  0.1802006732606922
  0.1755867619930206  0.8028151580732547  0.9923665301382705
  0.0014048877202624  0.4791485565149001  0.8291341026904537
  0.1603387521709155  0.3433657951848308  0.8534645385276940
  0.2122111391097662  0.4867802182291065  0.6902757862239250
  0.9983713705143206  0.4756359208927930  0.5293408971765943
  0.1626657421990468  0.3339639494066686  0.5251705355846987
  0.1465032884227616  0.5027115509214307  0.3313009477403709
  0.9965880408693882  0.4757622353717872  0.1905005866447163
  0.1647663175721220  0.3211911669411682  0.1673469807034388
  0.1321369394941426  0.5391998768180930  0.0038964269659933
  0.0185910982715956  0.1754557760734890  0.8438886054868153
  0.1785372981836035  0.9761934430641129  0.8139653531796469
  0.1801532125930058  0.1715732657462245  0.6755667485429195
  0.0349416548534487  0.1646254633339190  0.5211968521142627
  0.1622074372372410  0.9755859797307577  0.5041439521105358
  0.1642421428483535  0.1497310733248828  0.3377677834826600
  0.9923832040531803  0.1692041000422944  0.1683533366595217
  0.2052485595228348  0.0103072009849569  0.1618100948273346
