Cl O  Li
 1.0000000000000000
    11.7780000000000005    0.0000000000000000    0.0000000000000000
     0.0000000000000000   11.7780000000000005    0.0000000000000000
     0.0000000000000000    0.0000000000000000   11.7780000000000005
 Cl  O   Li 
  27  27  80
Direct
  0.6747119738039949  0.6936632905344000  0.6983700807584834
  0.6594314845617704  0.6775815950295809  0.3115927776817458
  0.6631915670093942  0.6804394601168247  0.0061815832617472
  0.6465476101314110  0.3243474054903288  0.6687983227803626
  0.6589979667921967  0.3597153381524765  0.3187329667620577
  0.6666446890788983  0.3386188971034723  0.0124864767317156
  0.6573412633322858  0.0039277183103635  0.6835870762335282
  0.6527179104886381  0.0124760471970814  0.3470794742939349
  0.6614776171798368  0.9939023121365979  0.0032764558864970
  0.3441231768551184  0.6522101173612966  0.6870161904549414
  0.3214275013856048  0.6683156587725672  0.3395748557961016
  0.3494052678038028  0.6585150317065546  0.9982351960361666
  0.3418552246760234  0.3207267345518127  0.6535161331509206
  0.3209868176984728  0.3394672486259352  0.3307448866759626
  0.3423706444298937  0.3323428488554974  0.0214587988790280
  0.3386698123797082  0.0184124797883174  0.6556427507639359
  0.3306135396861137  0.9797920087550149  0.3322969758366039
  0.3400023694049821  0.9804687046696956  0.0001034682224763
  0.0090358600286188  0.6791696352342436  0.6663911817619143
  0.0095614713518555  0.6640226668739815  0.3428481416746788
  0.9852694694529178  0.6582679492497272  0.9934105113048168
  0.9775420432970198  0.3167520389461283  0.6920559762251705
  0.0148072918013306  0.3090197709882359  0.3205991417329673
  0.0032882124853666  0.3402383337435388  0.9915479831837239
  0.0119002521230455  0.9920060957263481  0.6710020246138922
  0.9893905527099093  0.9871580545508275  0.3319846308989628
  0.0104565689733479  0.9876975972831731  0.9953966850307707
  0.8456350588215628  0.8367176768281323  0.8335345084226301
  0.8165006242415495  0.8654678238970518  0.4930955302659820
  0.8481563282106150  0.8388865612091186  0.1486141142914771
  0.8366643016883781  0.4819199002718178  0.8260903751272383
  0.8187088604409916  0.5196747717328566  0.4915495948876505
  0.8431276354427081  0.5001235170820999  0.1695035028327261
  0.8301547335959036  0.1654989624080061  0.8226813416691525
  0.8073728646886404  0.1894111738392752  0.4921776855373673
  0.8403346279821785  0.1470093667833023  0.1493543394053586
  0.5020877323464086  0.8346091966787674  0.8380394009568106
  0.5104051764194877  0.8326479214799229  0.5161270322108985
  0.4888926870552963  0.8227226803221332  0.1675846563434923
  0.5009295257390157  0.4929741985418478  0.8132918034556100
  0.5019556284537938  0.5055932983912386  0.4658790514961836
  0.5143740421261416  0.5211845941255268  0.1580545426653065
  0.4970328455182741  0.1766741602334517  0.8520606320084471
  0.4963135817253861  0.1603876389184236  0.4939575051288875
  0.5138299182166279  0.1579875626040089  0.1746542591115844
  0.1657593188311832  0.8074489926287777  0.8310686230743678
  0.1732747874188789  0.8397051761979851  0.4972321270259925
  0.1745032159698025  0.8377851961172732  0.1813870637544351
  0.1834615035967274  0.5053623291275648  0.8580717437338135
  0.1656087940770485  0.4908160427944940  0.4889167072234101
  0.1536752539167759  0.4950579016203330  0.1692227972429484
  0.1708014932405985  0.1792994163979195  0.8259549919164189
  0.1382033091709732  0.1684747210089780  0.5050520458963921
  0.1804679921434995  0.1573041790056748  0.1629132776823105
  0.6614850260098547  0.8592087795212492  0.8355464713547122
  0.8320356857414392  0.6594587466121171  0.8137962516633882
  0.7939789145785222  0.8524720073082249  0.6679906793375884
  0.6704233138442722  0.8457261663633754  0.4938803804229632
  0.8439971001064513  0.6735326086966676  0.5289551987171885
  0.8253993983158712  0.8155559530556095  0.3180038447718506
  0.6634678394467841  0.8458084327163615  0.1662176664770695
  0.8404388374273487  0.6440816591817897  0.1305965987893092
  0.8426417295526797  0.8224784723294113  0.9960307839683556
  0.6619587862769027  0.4734584091101934  0.8320869121050286
  0.8593055242815306  0.3189285143414773  0.8212967406494084
  0.8286851941861179  0.4905801343108083  0.6623524382377143
  0.6675777563216482  0.4962215737580671  0.4751799266619705
  0.8398377100606479  0.3433553459397706  0.4803943664906549
  0.8398866974066681  0.5328830962384273  0.3389997605479886
  0.6726133720946541  0.5076824670000647  0.1550751201347357
  0.8091620768952654  0.3532446360535387  0.1201613932866380
  0.8423417326650683  0.5029995196329943  0.9912701862176162
  0.6574265256056068  0.1661335813300747  0.8290516399514537
  0.8290426803558356  0.0081768104240133  0.8312793091476643
  0.8005024906228339  0.1842594054251686  0.6624176602331181
  0.6468023848161260  0.1683774345689064  0.5075302388092746
  0.7939462023672955  0.0329782674372859  0.5041970750094050
  0.8220763558684852  0.1762640025454100  0.3209961821481904
  0.6672141163696206  0.1724375037827892  0.1741290216458051
  0.8382077674567034  0.0014310374820008  0.1390313797017295
  0.8367098882599638  0.1727645449242364  0.9993904498971187
  0.3206083196009994  0.7920234036773492  0.8310598782258218
  0.5299339211823210  0.6630504097544154  0.8251786436955237
  0.5119700994550780  0.7995114231571098  0.6734786385957873
  0.3275819112194329  0.8462100479829072  0.5002229057140499
  0.4946821411612741  0.6549350283623172  0.4341493401977585
  0.4972917092293924  0.8560667878270883  0.3245274208161623
  0.3382858892373037  0.8178803014107427  0.1878599925509192
  0.5248517067024809  0.6721656593156546  0.1699775869830537
  0.4782756716979638  0.8342822365081402  0.0044122914582711
  0.3338918659982275  0.5089937489424183  0.8465959113755503
  0.4943117401457874  0.3260036231253204  0.8297019975766343
  0.5001785618701491  0.4887437161162003  0.6472872099201090
  0.3157412648322540  0.5108194789888039  0.4573455367902867
  0.4971111443010867  0.3550244151596490  0.4874835641971551
  0.5325074167501881  0.5025126420931275  0.3054905737840276
  0.3518281171613054  0.4945026847084976  0.1602657444210265
  0.5245767297982090  0.3579518746665695  0.1505626264648400
  0.5194744750404517  0.5001046103956608  0.9765293459819383
  0.3154725834092267  0.1683055426022161  0.8423998415483467
  0.4824313775714633  0.0052941742754428  0.8392048949379918
  0.4908894274732432  0.1708592812900354  0.6591691919108306
  0.3236803525067944  0.1908540131212096  0.4798652626682270
  0.5132258354150021  0.0152869719818449  0.5262145388917036
  0.5295999165503652  0.1560774710846733  0.3454156049164658
  0.3281954878496882  0.1645191952448974  0.1826663014948260
  0.4777506569019392  0.9805126933327580  0.1483115870657450
  0.5059252228978266  0.1560337974487070  0.0126041817352535
  0.0112424881981853  0.8691196078731024  0.8451463717582718
  0.1685368406224131  0.6623034539411323  0.8725030110172617
  0.1568975990283035  0.8427647395975204  0.6763456533856762
  0.0118530764991199  0.8427114607980470  0.4952507710638206
  0.1903744075856697  0.6967622057523912  0.5109821058310706
  0.1517174807058906  0.8594737160438577  0.3397574449949041
  0.0072556355829992  0.8476764295307180  0.1598527021475269
  0.1518533396202768  0.6687456947968866  0.1811171880118148
  0.1745318593973308  0.8178759289864699  0.0258985655706533
  0.9998293520043698  0.5042654984016317  0.8113459127125405
  0.1949063646163912  0.3367645843576734  0.8232416597426395
  0.1709472407163610  0.5628450930829024  0.6887983582002380
  0.0226292906096655  0.5257513483660864  0.5008171910464716
  0.1580842871215851  0.3280097561583720  0.5435821724722578
  0.1333282787764707  0.4775470711448421  0.3193236691357003
  0.9953126193064641  0.4814518484475703  0.1797444087317714
  0.1620768975211653  0.3263415345993349  0.1893799565387779
  0.1495063194355805  0.4608144107336934  0.0076065305228288
  0.0230331072703764  0.1605851773548443  0.8595407163478603
  0.1850999278940531  0.1252946527964905  0.9982448643733599
  0.1713907381394834  0.1570582807470879  0.6662580657340512
  0.0034426462956058  0.1816803026280256  0.4795144565911485
  0.1301873599456730  0.9977678603422691  0.5157110446238261
  0.1584650726447197  0.1745092434226388  0.3295983601093356
  0.0095559824158867  0.1913278543590776  0.1530431371674413
  0.1839130778591317  0.9961611285299073  0.1549655463727492
