Cl O  Li
 1.0000000000000000
    11.7780000000000005    0.0000000000000000    0.0000000000000000
     0.0000000000000000   11.7780000000000005    0.0000000000000000
     0.0000000000000000    0.0000000000000000   11.7780000000000005
 Cl  O   Li 
  27  27  80
Direct
  0.7004518655543994  0.6708677028279314  0.6762937829573187
  0.6710409561099463  0.6688399101005650  0.3100034738111430
  0.6640420003821892  0.6500345586424332  0.0051532661064800
  0.6579517396804017  0.3437325542588880  0.6457874597762803
  0.6607068123118230  0.3194525025143107  0.3456140152923204
  0.6352687361441973  0.3260373937119675  0.0159760384384498
  0.6538857089899061  0.0005506600058817  0.6634443616108132
  0.6724736133112822  0.9960837603404402  0.3102709001864623
  0.6655570858781508  0.9900692079878137  0.9860234000495147
  0.3292474778358399  0.6629116315239235  0.6814823121236455
  0.3433558942177690  0.6589680691984786  0.3038831931778893
  0.3301052624588173  0.6675067660368470  0.9943162201371706
  0.3349934910969583  0.3521921830916554  0.6712087749841934
  0.3315009159954735  0.3237812227871633  0.3227076739922150
  0.3208186179146223  0.3301126348332230  0.9956894779674110
  0.3501119374859219  0.0193236919296340  0.6769089182758564
  0.3473499418494018  0.9906616031576592  0.3414822767815019
  0.3364294073737938  0.0153431132878186  0.9923827558846123
  0.0102128411269274  0.6657669055449317  0.6599233455088499
  0.0013644879933173  0.6842608837152609  0.3379631634938053
  0.0029918846026738  0.6440615841732245  0.0127671155054844
  0.0107494461367147  0.3216953334965416  0.6949127800735241
  0.9923437698083746  0.3306073665426169  0.3180318520572929
  0.9732349289634401  0.3241321503204715  0.0096528246879017
  0.9813397904748008  0.0254078102356332  0.6779467617595156
  0.9970467299359352  0.0104166436496568  0.3326503441189811
  0.9969488972591219  0.9778384125612839  0.9894578665686381
  0.8311418457126361  0.8276945373292552  0.8162959741961235
  0.8332333219898286  0.8375873901590976  0.5195029804708361
  0.8392899393159610  0.8149043056520733  0.1483448169690688
  0.8325745433993819  0.4889642458988729  0.8619918563886747
  0.8461995032585837  0.5076474123898239  0.4983789486149620
  0.8405093598631741  0.4847462329794851  0.1870863077488477
  0.8297382975210426  0.1699614218659853  0.8464733129360379
  0.8263969556683664  0.1631167661568393  0.4898088350984846
  0.8306602312760607  0.2033802856803835  0.1690964134176073
  0.4818596394640953  0.8301660096640885  0.8238456934406235
  0.5083559637619868  0.8439197131268806  0.5018494389253279
  0.4941296336236247  0.8369037535269512  0.1427491260350354
  0.5095758296487094  0.5056758538968561  0.8472446409661014
  0.4870136750611582  0.5197274085205328  0.4923048415917381
  0.4997008713700579  0.4981852433508600  0.1559891202525270
  0.5039645113464415  0.1794084493616340  0.8336655105909448
  0.5178921401303103  0.1677063845326593  0.5188190604408204
  0.5028942390494252  0.1641335471059802  0.1739105132701590
  0.1622075610334479  0.8364438392701007  0.8346497918772611
  0.1707177865072803  0.8414376336146445  0.4871817773332747
  0.1648040725568626  0.8555725476973756  0.1745452030416949
  0.1671836126470883  0.4738880460351755  0.8421344105825871
  0.1888282868747142  0.4839666864112052  0.4895713071984016
  0.1680562655368641  0.4902468641709933  0.1680283981821948
  0.1690410225267472  0.1572127079766908  0.8302295948206627
  0.1706140426443243  0.1772903539274099  0.5161245539826603
  0.1518926073196333  0.1694561032218936  0.1582432163000721
  0.6668526999668599  0.8296856907606310  0.8071859472527658
  0.8368774947088112  0.6487080137005345  0.8605811827649330
  0.8453748964290471  0.8107917167401536  0.6606398967792724
  0.6715613960546485  0.8103545552836858  0.4702188359104211
  0.8384535107467237  0.6468457658143886  0.4817214696100608
  0.8391786854094621  0.8331643591238037  0.3030275745243433
  0.6504810884415031  0.8075638959769325  0.1564316865112209
  0.8191941154161816  0.6435591197505333  0.1523492997151120
  0.8012053141910094  0.8217999426136787  0.9964171892941158
  0.6626613264472088  0.4790625672496650  0.8631923297640390
  0.8476639415067179  0.3267467183367168  0.8413551474121765
  0.8468067844075942  0.5312866003378504  0.7026853310143009
  0.6594519670309175  0.5295592903230145  0.5246404575352361
  0.8537317328059919  0.3372110834558930  0.5036487724844362
  0.8368242159093382  0.5015946006922254  0.3529039396612734
  0.6597496562501625  0.5171716860476266  0.1504827097687507
  0.7959945180492189  0.3316116678641458  0.2007209638637287
  0.8193392151253852  0.4436193317250401  0.0322217504602644
  0.6771995156982926  0.1569040269686487  0.8750079156824686
  0.8319254813073194  0.9969438871076407  0.8594733400074981
  0.8328334880813199  0.1529037445838861  0.6596278829871512
  0.6758993267582609  0.1622064719571774  0.4867461948077943
  0.8222684155049327  0.9914413179934243  0.4754671215418105
  0.8530528734522179  0.1596884616436248  0.3247160742082228
  0.6738225061994646  0.1673901023889021  0.2033639121523378
  0.8239709079634789  0.9898478906989021  0.1644101462469222
  0.8421566302225705  0.1869578649655593  0.0201192495023083
  0.3363727885280011  0.8540646281189724  0.8454398013912419
  0.5005424011009468  0.6667801743847608  0.7857330524119974
  0.5405956697693510  0.8430482241926405  0.6601714805863355
  0.3250660434843273  0.8720622551635101  0.5029692653641032
  0.4533679917376046  0.6871572909127619  0.5240415973514917
  0.5060106844499178  0.8444954156561428  0.3120367320688503
  0.3228040629031976  0.8300566990572668  0.1631096941517260
  0.4905641645415536  0.6698456081687365  0.1175158959203235
  0.4905112501107699  0.8141090912301489  0.9721320348064253
  0.3124828339508432  0.4995235695470495  0.8086403451192363
  0.5152716410015096  0.3285481773798468  0.8545347677621041
  0.4496100955021170  0.5032650691915138  0.6341193217208303
  0.3366753967245531  0.4584510806835558  0.4643021361610208
  0.5162710233457315  0.3299140741402015  0.4979606938449334
  0.5288401641992634  0.5594697897260535  0.3197278466075448
  0.3284637005422217  0.4959649020138473  0.1587496179288795
  0.5089138122254681  0.3327200976600249  0.1682311491151444
  0.4789788596348288  0.5015534270303225  0.9911523327946650
  0.3285952781245074  0.1775289546908561  0.8408521566791560
  0.5073317233760655  0.0025114166435577  0.7812641109218383
  0.5389052014775552  0.1645576014109818  0.6855590309623635
  0.3349411434619136  0.1585848192474703  0.5177891520975083
  0.5535234303840788  0.0295139062999346  0.5190028237165110
  0.4802171058976613  0.1668938929620455  0.3276773997605532
  0.3356681399680991  0.1807621802563035  0.1822636249893899
  0.4679721722068811  0.0119977962739545  0.1404734715067004
  0.4916311575203652  0.1857065419153180  0.0257313547397318
  0.9888991262693290  0.8595125877921563  0.8393671518427754
  0.1712726997785412  0.6637495985387383  0.8086724095639041
  0.1307818951636274  0.8354336473214263  0.6772912220018636
  0.0012725780473143  0.8374945166287089  0.4895853961210587
  0.1508073351782364  0.6813145175219011  0.4716283759426847
  0.1876387648027373  0.8249733509859487  0.3207315204052196
  0.9895782241074709  0.8250731880068460  0.1709097346858479
  0.1336533734699616  0.6507345513801928  0.1571662133036542
  0.1580630493757953  0.8521481297835148  0.9946214832909958
  0.0062295467997238  0.5038884635336780  0.8344465551193924
  0.1955307274601145  0.3192966539287696  0.8238801870098872
  0.1621344848685170  0.4625062612841890  0.6394180116875876
  0.0148835441878309  0.4966331137048086  0.4933460858498316
  0.1262773163913739  0.3190917572690935  0.4780668111699050
  0.1662818811116274  0.5021113969500333  0.3212145923165525
  0.9977186640705646  0.4802198022072196  0.1351276565227800
  0.1523462564592967  0.3106305697480436  0.1794758199040369
  0.1876407890732340  0.4930490213341680  0.9981390374159714
  0.0095463506984728  0.1666323268498141  0.8306077285494465
  0.1843620579070207  0.0033304491382139  0.8310747682384456
  0.1480668575370963  0.1415204922367895  0.6718518047501756
  0.9940312383843281  0.1569000695198277  0.5036051292125274
  0.1472801045658481  0.9954528761974379  0.5071753350875606
  0.1597760781622768  0.0231088588842193  0.2546837238523513
  0.0085174854870511  0.1734193414565666  0.1565355214663493
  0.1653245428656221  0.1530158486839935  0.9856745372721132
