Cl O  Li
 1.0000000000000000
    11.7780000000000005    0.0000000000000000    0.0000000000000000
     0.0000000000000000   11.7780000000000005    0.0000000000000000
     0.0000000000000000    0.0000000000000000   11.7780000000000005
 Cl  O   Li 
  27  27  80
Direct
  0.6571236151449374  0.6424734999834366  0.6681670163000597
  0.6476610007664643  0.6708253515894249  0.3396539468039114
  0.6355402358279517  0.6458174329023486  0.0066607504579406
  0.6921481505600245  0.3139381635118245  0.6570034074232078
  0.6880696503632695  0.3291559408540613  0.3226346699331346
  0.6637573519896797  0.3489141164349908  0.9925399082180844
  0.6891276150956657  0.9784084132693824  0.6817301144528823
  0.6434146885455323  0.0069079657721626  0.3234407951730363
  0.6572778240713761  0.9720491826860218  0.9970521169086493
  0.3383673675012530  0.6685830671602282  0.6498088666800592
  0.3204752656777083  0.6502271847231840  0.3230410422353476
  0.3517816412871582  0.6868894359409230  0.9892360893819871
  0.3352438776394319  0.3275358362047308  0.6602237383855911
  0.3072609290887624  0.3363696716815185  0.3380721008669686
  0.3331693445062968  0.3319957494484747  0.0162887818955591
  0.3404651999878052  0.0327688639701250  0.6704575593378980
  0.3104768268987581  0.0263912631320068  0.3698831068685413
  0.3472233080118648  0.0027999842896688  0.9841347101212198
  0.9854745990149891  0.6616351230489879  0.6702627435452952
  0.9987272718079276  0.6967048806669714  0.3325289195096197
  0.0069436854893930  0.6845043594708888  0.9846418227750392
  0.9986854693570018  0.3397999194944099  0.6908215181076706
  0.9783238179393031  0.3140538100853010  0.3120056911371666
  0.9974448961319747  0.3516401205420795  0.9866022325982464
  0.0173028416798412  0.0010999146298733  0.6656262329434192
  0.9947871510586193  0.9909644412781874  0.3597146698532779
  0.9912197658780063  0.0105946652513585  0.9973941567874539
  0.8259943732767191  0.8274965601749625  0.8395358456810015
  0.8299927123618047  0.8434531557630857  0.4913933037221039
  0.8314613610925720  0.8332561765338187  0.1609608917904500
  0.8353448835550848  0.5022513515124600  0.8421495837463431
  0.8319441091206257  0.5039840056014070  0.4877886042778067
  0.8283049565924745  0.5020525681496839  0.1761874443452901
  0.8261501611341453  0.1538275978961606  0.8149018502400758
  0.8441893262092754  0.1763551172155132  0.4961939016904426
  0.8469543177661305  0.1576642989820847  0.1594947835191562
  0.5079401021558810  0.8166633122431723  0.8304117298149867
  0.4894810628943249  0.8358477285945166  0.4977583793865237
  0.5067693855568184  0.8503784280447628  0.1748240779230563
  0.5105523017756450  0.4984807833436631  0.8395182750130901
  0.5063819806691594  0.4883903212279326  0.5101604369532580
  0.4785559130819844  0.4982156443940051  0.1760491461849554
  0.5243651949077608  0.1430284690435923  0.8382142399591145
  0.5149339567219864  0.1660392222159176  0.5021100751295138
  0.4962488064459487  0.1555257482944914  0.1754208328654840
  0.1658208782734451  0.8255864585342744  0.8281614697600327
  0.1706998559954161  0.8377507048030562  0.5074295745969772
  0.1737921720915880  0.8578484720025125  0.1498523531924609
  0.1852200697244894  0.4841352641584551  0.8270398619632202
  0.1791755575359273  0.5030518290376758  0.5055198778103884
  0.1730341637613930  0.5056118834494449  0.1744312277477613
  0.1509713865840257  0.1632599696734131  0.8467535035932221
  0.1632944065092163  0.1678791525198375  0.4989026590128994
  0.1749332128851690  0.1789174185675336  0.1592093613791212
  0.6570682715895576  0.8079493945506091  0.8102016560883735
  0.8304354608048434  0.6736179541958551  0.8521188730301409
  0.8303096321507686  0.8123333166799067  0.6435536279327905
  0.6577488313305488  0.8055592978897431  0.5294355406228546
  0.8439386405509637  0.6629155955943818  0.4453359677896616
  0.6508605222281415  0.8589009307191577  0.1758766985813413
  0.8221176523630750  0.8814888745128368  0.3488264427347973
  0.8268447288269737  0.6778624850587499  0.1833168440638547
  0.8012189218134838  0.8341057223758745  0.0091142637179611
  0.6952305477307626  0.5179389215515714  0.8062079323400200
  0.8235718882879057  0.3345946293683704  0.8491248959946988
  0.8149454190808002  0.4828504596741983  0.6420345343812454
  0.6798696544644089  0.5262917093875229  0.4967384304540555
  0.8129271404247685  0.3328793030348751  0.4690545476265687
  0.7991931938420243  0.4958138879350781  0.3454296763559215
  0.4713563521480041  0.4844038848533674  0.3418390253488715
  0.6552097078757156  0.5135426108868340  0.1554190160875715
  0.8518902989452887  0.5107119924804756  0.0137716281014604
  0.6860565538397091  0.1486968717738672  0.8767975643636335
  0.8132447079802910  0.9853325810584699  0.8332589877248279
  0.8244473447923194  0.1699432606599146  0.6543469572503857
  0.6707187777424279  0.1472350448346739  0.5177466740375183
  0.7974361270508867  0.0098346883181054  0.5158610660698403
  0.8525264057061724  0.1522935551069974  0.3203648149397728
  0.8541667125750600  0.9954153136238253  0.1250104854142289
  0.8263161513148747  0.3243291285827902  0.1555966154595997
  0.9999702201449533  0.1822563920237287  0.1564407160140194
  0.3449258824543378  0.8056935475090844  0.8165862052349714
  0.4991225822992966  0.6450744851446489  0.8378976440534305
  0.4885951611541482  0.7905126523752977  0.6799287566232771
  0.3317411811854636  0.8442860216162485  0.5379574360161004
  0.5295191090485939  0.6524310484983535  0.4957430561654171
  0.5025805221325829  0.8363525006855742  0.3275508739895400
  0.3440086450068721  0.8787588623501645  0.1557153490455837
  0.5056777774487669  0.6685563063042618  0.1815671253746204
  0.5038813183537637  0.8391537671697303  0.9838576545441814
  0.3487172196384308  0.4450531595035486  0.8157215988204201
  0.5398032128800389  0.3441437610678728  0.8317228903011104
  0.4910238808960912  0.5159987797367123  0.6630308752541876
  0.3198958992188472  0.4584212799221289  0.5039900151398009
  0.5055327182249730  0.3011704822079759  0.4738074942674151
  0.5044937006644259  0.3190888995479778  0.1616884146069647
  0.3132389439915079  0.4945857225393190  0.1472093441757369
  0.4876376407237982  0.1563683711314486  0.3404553554935558
  0.4762640340256183  0.5084140001272096  0.0140681457741554
  0.3616344135611658  0.1743597735442091  0.8410965582339586
  0.4728884820015479  0.9906596063840892  0.8202534546376167
  0.5222261482738957  0.1702081566971130  0.6894946492824922
  0.3322871066957192  0.1763672628384934  0.5050042961148784
  0.4851008654227412  0.0007660084438849  0.4941646514883187
  0.3247275697393104  0.1503612269762556  0.1629705672968708
  0.4935211424370527  0.1790427411539844  0.9986753209058854
  0.5248878615500092  0.9966701389783184  0.1469864922367550
  0.6878197744131564  0.1842592659812806  0.1691120724062824
  0.9795780534087217  0.8083092288741028  0.8436648716693543
  0.2019122447257042  0.6762400322556433  0.8068453346340216
  0.1726395727134709  0.8655334125161918  0.6663912047641228
  0.0217563860625348  0.8422776214002409  0.5307320858759921
  0.2008606564453724  0.6722765106231007  0.5121332100085240
  0.2041369989723995  0.8600732262492077  0.3356810325562642
  0.9978024980646613  0.8418625649775969  0.1411049439445299
  0.1558587144217957  0.6649990557604074  0.1583246438371851
  0.1923956632957888  0.8448976751895321  0.9870454466234994
  0.9892696583264581  0.5223873774243039  0.8158430550502224
  0.1445690947065240  0.3324992462491193  0.8218509279427940
  0.2080765127568511  0.4809662686958682  0.6813565150900112
  0.0067542561540652  0.4989883489280061  0.5079811073365086
  0.1736070120692547  0.3498124471960172  0.4861391881916839
  0.1330219776627194  0.5236453805671843  0.3284369781567663
  0.9987023395956920  0.4857875142232732  0.1633503508061096
  0.1752385133614817  0.3519696717789426  0.1934017596784241
  0.1978351412755916  0.5079476891755893  0.9801263255937941
  0.9853254317872564  0.1517950987398895  0.8527473685339567
  0.1784642086406812  0.0163839947381837  0.8188554934325942
  0.1302999512471567  0.1719144952696030  0.6907146366254445
  0.9990876881091894  0.1683891775928340  0.5067623345558542
  0.1743337454202757  0.0034115031224473  0.5179169151862910
  0.1516159851596430  0.1265341664834302  0.3196371909097331
  0.1247746948050561  0.1902352970989392  0.0027779795058496
  0.1514935471586500  0.0083850519153939  0.1419777081691829
