Cl O  Li
 1.0000000000000000
    11.7780000000000005    0.0000000000000000    0.0000000000000000
     0.0000000000000000   11.7780000000000005    0.0000000000000000
     0.0000000000000000    0.0000000000000000   11.7780000000000005
 Cl  O   Li 
  27  27  80
Direct
  0.6546090052675624  0.6440193230362808  0.6687609898590957
  0.6844555782083157  0.6846808445035339  0.3499667264154832
  0.6680344125411992  0.6666347969087150  0.9953058648734281
  0.6758336433671226  0.3275456832900874  0.6515847308112996
  0.6702818386174578  0.3158782334866064  0.3256893062225516
  0.6776524099229994  0.3418773564650979  0.0075340050263922
  0.6644703604484760  0.9954973582142005  0.6657512639991892
  0.6761205229819153  0.0275261618043586  0.3291655049757181
  0.6759474073690372  0.0034383594569448  0.9978393687635869
  0.3197458194659647  0.6683136863732697  0.6554308447550334
  0.3316590561931554  0.6656509609619080  0.3308132611600335
  0.3479565591756281  0.6825721214417095  0.9969066658895266
  0.3032940670716433  0.3165331254776994  0.6830879667265537
  0.3392277023667993  0.3358860421051892  0.3616165650656429
  0.3513833657286751  0.3214638840389761  0.0240640422866663
  0.3111394512648915  0.0009377637606073  0.6592501978428008
  0.3172591246169961  0.0096242922430828  0.3426306081937954
  0.3403296747397940  0.9973438098320424  0.0026612886261012
  0.9625597706225694  0.6860671459104953  0.6599350490372451
  0.9944265604583550  0.6505173932723339  0.3317569760655960
  0.0042876996116514  0.6556783518744956  0.0151305608295094
  0.0006348515493481  0.3332266162547369  0.6404110005819641
  0.9901342663005060  0.3523662759853991  0.3280685932789652
  0.9912158283336332  0.3236160479456597  0.9896774196612966
  0.0091250611788406  0.9825410326124262  0.6589405654276252
  0.0108116333825149  0.0017480909037143  0.3458649066226059
  0.9848998171905462  0.0032059380954820  0.9792042584542279
  0.8307806997997992  0.8343851213205720  0.8239103113998024
  0.8190640602232481  0.8455451674813498  0.4714546562935821
  0.8295931007847939  0.8224973094308199  0.1463904578988947
  0.8303075872993100  0.4903309579984536  0.8396642370257957
  0.8534746343966855  0.5011980517329487  0.5012175458920015
  0.8197089928034973  0.5006904456631956  0.1880187304699629
  0.8264736999493763  0.1784797601741844  0.8359722915230909
  0.8434540905839112  0.1502310856354128  0.5002901870920524
  0.8516318195073078  0.1713716355385401  0.1626708153102603
  0.5083691864348099  0.8411022985951884  0.8309452181715812
  0.5103397327925294  0.8518238877663803  0.4896711879496332
  0.4993423570088666  0.8479904862413660  0.1676775447432783
  0.4931832711101912  0.4988904238521184  0.8276816083059781
  0.5078278560185818  0.4914806221843506  0.5029884586933363
  0.5064996916602856  0.4822252526193296  0.1580924822424595
  0.4887291472800679  0.1684326579324934  0.8267158693374116
  0.5043755436572763  0.1795140409417693  0.5187496716931178
  0.5157608911243372  0.1637057838956445  0.1668932006539211
  0.1723825305075427  0.8188199386756914  0.8430828250406263
  0.1671853374634901  0.8293952945462015  0.5037320542175948
  0.1680451261142593  0.8331000334384459  0.1648930999469498
  0.1693938266967445  0.4981235492171478  0.8449696070851921
  0.1780936048598880  0.5051014120463292  0.5112867531675166
  0.1683823898217148  0.5058948451102165  0.1600331807317051
  0.1487545671394204  0.1540639709714507  0.8342479369431801
  0.1645345754907638  0.1639926635104371  0.4909704862106463
  0.1668161914957115  0.1772226072249126  0.1907310505084939
  0.6798189461502097  0.8594752253898146  0.8268515764315106
  0.8154813443565453  0.6560298057181330  0.8268538436144668
  0.7936645666512897  0.8396369696680357  0.6462664054207243
  0.6447212535993716  0.8412461837420939  0.4468875832352773
  0.8173195439091903  0.7002546910261408  0.4701483135712403
  0.8543778638923141  0.8413521745453011  0.3119774646736312
  0.6878549761388372  0.8499517614402105  0.1881295997650672
  0.8482003571321185  0.6418972802745880  0.1558659061523171
  0.8230440999030438  0.8078762465456011  0.9857170109772273
  0.6502889286297308  0.5055781682337125  0.8107974110054463
  0.8146598144181637  0.3342759575948174  0.8310984959335914
  0.8650934612228358  0.4795937009736170  0.6847677063847171
  0.6975325275586503  0.5095247264794927  0.5192190190504831
  0.8461750340147584  0.3364091945723569  0.4842345641912307
  0.8397776105078012  0.5051385776526488  0.3362531642366407
  0.6764539203327221  0.4852225899437963  0.1370420224977879
  0.8415522479668499  0.3319558197223174  0.2025329523583659
  0.8069380321814441  0.4970559489571872  0.9926001468033466
  0.6625299757211573  0.1633534393729885  0.8271308447892355
  0.8129367553713710  0.0152232896964556  0.7968114832312727
  0.8495500597284995  0.1839384889664109  0.6859613782112123
  0.6926071535568948  0.1572165394789569  0.5175263645465509
  0.8398754232582016  0.9850462267633965  0.4833427110957937
  0.8857472550423263  0.1599883325846811  0.3505435220508135
  0.7070906470191579  0.1594866272634260  0.1993669730588190
  0.8725384042264265  0.9804512668438035  0.1144012452441448
  0.8112009029350389  0.1831522825481968  0.0052787396463430
  0.3512387923298006  0.8133488213480249  0.8340160365150779
  0.5082062326598255  0.6777235887480089  0.8502997542154681
  0.4928266351340822  0.8392214274204726  0.6425371728554701
  0.3250189226536436  0.8304989268210035  0.5303817777337265
  0.5104092462413862  0.6901073469094530  0.4794967995791096
  0.4564705750716743  0.8690773929763305  0.3195444711881729
  0.3386377287305356  0.8474790745430791  0.1114922875695642
  0.4976178809727262  0.6856548424957271  0.1774477672664304
  0.5567569030484655  0.8405742878788286  0.0049060189433841
  0.3176143638464624  0.4967032805512517  0.8595909128828707
  0.5014188536843834  0.3224798856439758  0.8403163760090134
  0.4777566700235146  0.5114067717310965  0.6671411686076346
  0.3288387818090353  0.5036851109506068  0.5137822738358508
  0.4939189314941025  0.3564815774197844  0.5417267207616731
  0.4928891446070204  0.4642383137230145  0.3296777263822035
  0.3285656672336202  0.5179569466897348  0.1895241804383602
  0.5264015904464809  0.3376132711492051  0.1501090630440413
  0.4674228501086707  0.5247761876827945  0.0188708345251541
  0.3185742729159985  0.1950283739117730  0.8342314188959272
  0.4807472462845223  0.0169939671763451  0.8462832776667318
  0.5052828216938983  0.1818879839240716  0.6629572039180014
  0.3515335261141205  0.1748875099934420  0.5038016081518616
  0.4665870288205825  0.0119047297430507  0.5011712710684469
  0.5060131380036984  0.1788898773768162  0.3483080796558956
  0.3558602018737713  0.1725529998004154  0.1797349702579490
  0.5381672983398720  0.0098750822778418  0.1487409193434353
  0.5032881055464481  0.1536073461541571  0.9863605569321864
  0.9857613353274211  0.8437720684678786  0.8115508444843188
  0.1435842564075641  0.6674873791565160  0.8125137494741902
  0.1311086368509796  0.8385896121130419  0.6734533298412707
  0.0132220157640959  0.8114581527041052  0.4960975180392833
  0.1780283018936645  0.6698930222147967  0.5600502553561798
  0.1753840175865276  0.8294461442210789  0.3455702538091060
  0.0172968204020256  0.8393976199245057  0.1757824404142035
  0.1760377355007325  0.6705666589506892  0.1912140819344170
  0.1592228897074177  0.7939180107918220  0.0022265487032151
  0.0105608212072973  0.4988098174009397  0.8743904354550790
  0.1537304365687162  0.3061210675081580  0.8739872007721361
  0.1598694113400068  0.4543309266310058  0.6742192328264029
  0.0019040828304207  0.5194741779124229  0.4907010962929453
  0.1485668362935563  0.3235878093722307  0.4882111221257719
  0.1528017518715917  0.4823677612622975  0.3473363488466586
  0.0100717859215979  0.5093663070704207  0.1544040589704187
  0.1636290585694741  0.3316382521667948  0.1845204469256774
  0.2076578730371712  0.5346485953806203  0.0009846321849382
  0.9722613931489265  0.1675739421450874  0.8517743947869058
  0.1537697681444671  0.9973619166153432  0.8556490104592331
  0.1845106233052533  0.1539308144581776  0.6647314365229506
  0.0050999580748658  0.1625744191150378  0.5079550873278146
  0.1311208432020747  0.9945728150479954  0.5107830336971172
  0.1687497949168662  0.1324742658091627  0.3382049860922657
  0.0049005193545163  0.1802451669597682  0.1389976601032992
  0.1981144497804696  0.0352861546770415  0.1485199904614252
