Cl O  Li
 1.0000000000000000
    11.7780000000000005    0.0000000000000000    0.0000000000000000
     0.0000000000000000   11.7780000000000005    0.0000000000000000
     0.0000000000000000    0.0000000000000000   11.7780000000000005
 Cl  O   Li 
  27  27  80
Direct
  0.6530707597017290  0.6685293346892873  0.6774764301430863
  0.6792425124681795  0.6529869858156093  0.3092587320861808
  0.6793449405553126  0.6777652307721301  0.0093069926654495
  0.6660539853280665  0.3418622379444916  0.6751226488949313
  0.6817851581536769  0.3429185832604906  0.3135851649333721
  0.6805719723595933  0.3484711977183541  0.0024178368486484
  0.6466547533916123  0.0117773995829668  0.6507118090335621
  0.6631909785937610  0.9931649452885576  0.3342593633994692
  0.6539327345646347  0.0110881127057967  0.9977945722505429
  0.3465478264361738  0.6714442437191284  0.6754100143346430
  0.3220925335946971  0.6742982626924284  0.3282943038279026
  0.3160910169114848  0.6360429915646049  0.9939310685580734
  0.3299702049023675  0.3570407444390924  0.6667380800121816
  0.3671762359036355  0.3157393915532415  0.3299631731534987
  0.3104342537365660  0.3369866812396600  0.9890816458179388
  0.3261347993495612  0.9875834451232905  0.6907639441104880
  0.3484496690532353  0.9928866302357195  0.3484352284743485
  0.3288869367887625  0.9878776007253498  0.9893256298757371
  0.9876937243012265  0.6449934655074125  0.6785328159444953
  0.9983867416850883  0.6901302441887746  0.3239344097894009
  0.0162077718459321  0.6672718983421460  0.9987308251099138
  0.0051429378805512  0.3411383993002809  0.6413258740215039
  0.9949762502778063  0.3319622799252058  0.3336727095668200
  0.9999926618914977  0.3139155845638279  0.0119780296049539
  0.9843763510764003  0.9939959178162217  0.6535687834417874
  0.9986563003842494  0.0012312699084832  0.3674179060279915
  0.9966169692755154  0.0066613734599866  0.0023572605540346
  0.8342421999337699  0.8332996900175395  0.8331893490754851
  0.8338913533712815  0.8251553210719285  0.4897208072080626
  0.8204234769026237  0.8112080163788318  0.1692733018070886
  0.8355408099428142  0.4902446256417732  0.8316213491487396
  0.8144721216423199  0.4769935485433122  0.4893601226909601
  0.8340400157965595  0.4980054762990792  0.1453437018922528
  0.8258818818115707  0.1628284779637303  0.8476374582894658
  0.8421070576091965  0.1637943383885267  0.4975329933651647
  0.8426117487294342  0.1668627174860751  0.1659749959451723
  0.5074387483283165  0.8281596623723135  0.8348779955238338
  0.5011593802767269  0.8479418053159240  0.5095456217737434
  0.4938803869684560  0.8459915421485814  0.1554315628203949
  0.5012109991743927  0.5121975962660469  0.8522834829626765
  0.4946840628410566  0.4925199056800664  0.5027231419478889
  0.4964922627049406  0.4996244878423413  0.1866188708392288
  0.4970309210841131  0.1733990666772210  0.8300834703669852
  0.5191221088979016  0.1676874154077840  0.4833148817650192
  0.5182019160155107  0.1622615101616615  0.1556157511928898
  0.1596612835534991  0.8211935807974229  0.8545395729166608
  0.1791227820504319  0.8478192154946439  0.5191296923820188
  0.1631385855340863  0.8360344794585839  0.1707002303229188
  0.1656438227008047  0.5192150943115539  0.8408422251444969
  0.1748788787113912  0.5041850478151811  0.4887483071760370
  0.1554864078383959  0.5041269917373358  0.1714761129615997
  0.1564073598222229  0.1653200816686534  0.7940659493024458
  0.1764122838553479  0.1667131643817788  0.4944965066492919
  0.1751361634915220  0.1774526885895717  0.1924572920485217
  0.6749664839563559  0.8166784049691193  0.8393115527657106
  0.8262159674143464  0.6643685276541363  0.8062322198417242
  0.8681210387331338  0.8510698700290676  0.6545970723687021
  0.6617196983113480  0.8600645135541134  0.5116158027253106
  0.8213148846585514  0.6441786561470801  0.5113129718590042
  0.8446833061849390  0.8038514125397171  0.3194970266762853
  0.6493192196756011  0.8249163761824976  0.1659348344185177
  0.8312049844805184  0.6577426449789213  0.1581027699251379
  0.8568877949511952  0.8214973023427482  0.0054885410106377
  0.6594498433179861  0.5128452818541717  0.8259584929196259
  0.8166388198111698  0.3388759328942320  0.8266519270209759
  0.8204893061791765  0.4820694472992024  0.6526567281267932
  0.6515584676990530  0.4760952177822858  0.4742246521871192
  0.8301377081038372  0.3271170063070049  0.4748637143829281
  0.8082385830747757  0.5186904438842186  0.3040731988401893
  0.6472733299699943  0.5272872372858425  0.1534339722088394
  0.8338419611711622  0.3331475915145497  0.1729813402602424
  0.8612394906941853  0.4979465700276251  0.9831194651385692
  0.6598698389606418  0.1923664002604989  0.8778054853850953
  0.8228421562629031  0.0039333988520863  0.8487977701381754
  0.8424758796936954  0.1692299904970908  0.6666872303373044
  0.7026855890904854  0.1449870436307180  0.5041744224377943
  0.8481282097162265  0.9916209070312323  0.4659752640881393
  0.8518890613866392  0.1688547008683547  0.3268528612926111
  0.6941216293563178  0.1682846359324260  0.1102687014136828
  0.8169546869794752  0.0028102548237420  0.1936758016740114
  0.8632677287610608  0.1572400642821326  0.9947964258504621
  0.3395042962720794  0.8111787859128592  0.8624424868774252
  0.4846250174034351  0.6503699684320631  0.8675336081474506
  0.4786472656558541  0.8622720210161768  0.6654357858308334
  0.3383383367086840  0.8364970657524901  0.5175968742765062
  0.5136596959333710  0.6917311992392062  0.5166780578980532
  0.4979350412587601  0.8658254254460875  0.3571991456481801
  0.3417705480639572  0.8662962707636206  0.1627025501388513
  0.4686034427323679  0.6718391788930349  0.1508068739582195
  0.5219047116080782  0.8456271734591750  0.9917861996161923
  0.3222615601811717  0.4767964250823434  0.8380624968984257
  0.5009682081710183  0.3329283832624618  0.8591638164393267
  0.4935982441466256  0.4939794856790084  0.6755989597428051
  0.3322380153825277  0.5059813854539545  0.5228136622589669
  0.4903955243375637  0.3322149493686042  0.4686380704703210
  0.4814870337648575  0.4863084316609362  0.3520455958760364
  0.3128293301028539  0.4752302874844551  0.1563075759991952
  0.5329699814242003  0.3347151056163758  0.2001449045992568
  0.5064467343287027  0.4844041599192787  0.0020521900221988
  0.3321296966682492  0.1582096493646429  0.8161828858369525
  0.5211379179439273  0.9897086938233824  0.8397951105019629
  0.5083126663871527  0.1777076252159263  0.6671237035418033
  0.3385499134609993  0.1517868617483621  0.4580456702422284
  0.5143507413955353  0.0107838509332827  0.4981251329708600
  0.5238869582492686  0.1534788381216780  0.3205337163257613
  0.3332167906530931  0.1757206822671835  0.1750797395425336
  0.4906113925433320  0.0026771331026181  0.1345032880429043
  0.4876981029298883  0.1949232765675881  0.0102195066042280
  0.9891350301982595  0.8133824877463889  0.8278972582305472
  0.1603470355483143  0.6691057254705184  0.8446987033531737
  0.1908237942587483  0.8294964096375157  0.6841132438789835
  0.0009671869847505  0.8124914848445607  0.4669558612021517
  0.2082452936772198  0.6762586067268447  0.4807209005797254
  0.1682985927291144  0.8311746918209214  0.3247471341511217
  0.0148637637754921  0.8260765260895676  0.1610055535747036
  0.1738767636019989  0.6668527933785088  0.1452869109834678
  0.1637546317743476  0.8479105505794551  0.9985785904007208
  0.0104848453898285  0.5016071393376311  0.8389924467646106
  0.1636226999447250  0.3218610082050231  0.8035681179264248
  0.1693235314883571  0.5252953956024976  0.6553923677614463
  0.0022501797469127  0.4823996058172145  0.4889633251881967
  0.1824518973093080  0.3337632531434166  0.5019218547144743
  0.1674879938514151  0.4933882772377416  0.3345474980619698
  0.9845380358868172  0.5164652038126041  0.1771007914491458
  0.1526223282407271  0.3332290481593370  0.1843130445591405
  0.1591638798070494  0.5064676152272625  0.0143500444696081
  0.0255401421303094  0.1535975413436046  0.8563298377439441
  0.1468859201431155  0.0162930574406826  0.8499163010438332
  0.1782162125084839  0.1795344078829701  0.6570233225006392
  0.0085800644176242  0.1627959074514383  0.4808687937822144
  0.1625177316513953  0.9989682167012096  0.5340273111024972
  0.1654093109637617  0.1549163738149109  0.3409005293169342
  0.0003485155977618  0.1938993195795364  0.1694273690345926
  0.1367354384071579  0.0458886081881541  0.1336771528891427
