Cl O  Li
 1.0000000000000000
    11.7780000000000005    0.0000000000000000    0.0000000000000000
     0.0000000000000000   11.7780000000000005    0.0000000000000000
     0.0000000000000000    0.0000000000000000   11.7780000000000005
 Cl  O   Li 
  27  27  80
Direct
  0.6436869891896612  0.6762783231361258  0.6452426624161046
  0.6682191638246029  0.6465825583473769  0.3242370453964848
  0.6789903476229641  0.6451708725883867  0.9868607454855988
  0.6613652268352295  0.3207751085544154  0.6646039190380406
  0.6881502525913605  0.3273630968859321  0.3393924144793084
  0.7095327028188437  0.3352041086549074  0.9977593811499397
  0.6468276043798844  0.9987078963997805  0.6394335324008988
  0.6533914229216705  0.0011031014970203  0.3380584202219818
  0.6669073960573300  0.0118851527813185  0.9960320489946453
  0.3184604847865483  0.6892906577722057  0.6699856040951627
  0.3396940296762941  0.6388624360124646  0.3196298057459911
  0.3361893494372390  0.6448990535460896  0.0050660962100782
  0.3230801332151869  0.3161786785083741  0.6643933544209737
  0.3294357352936822  0.3461400478289953  0.3518569612762758
  0.3366312072012591  0.3304753925319065  0.9742281842374051
  0.3236896005763339  0.9848080893161355  0.6758497537824687
  0.3374868258548051  0.0284512562159986  0.3545580668562551
  0.3263275286741112  0.9848939854391559  0.0177788849913169
  0.0163944017904416  0.7089197658662656  0.6880400321698380
  0.0091422933247050  0.6618019551060109  0.3342455650425087
  0.0110629363540046  0.6770863714329993  0.9850218804540278
  0.9991656246260702  0.3549327906146998  0.6871234424889315
  0.0259874664855677  0.3350260538220174  0.3386407016303581
  0.0236109956954826  0.3528958886700984  0.9790016974664979
  0.9652742122602915  0.0091363262895485  0.6897948317780190
  0.9623064343457528  0.9834039262523788  0.3395790522191043
  0.0110035075677286  0.9977096504936674  0.0026565304951256
  0.8238371039852963  0.8427153008497226  0.8325055779122311
  0.8243308640448517  0.8122246050369186  0.4961573670315481
  0.8423420132163076  0.8349131145888741  0.1474206510751060
  0.8382544442877270  0.5073880915221659  0.8241204017483327
  0.8312771887396947  0.5043888918688423  0.4913090772503069
  0.8508612770579078  0.5143698004652911  0.1773825568274089
  0.8211843379847781  0.1603523194573402  0.8448740325887202
  0.8506735866974536  0.1692442818614407  0.5062350762431491
  0.8327923147210661  0.1652347890459180  0.1906635324011061
  0.5005760447782512  0.8309445727654997  0.8537895676227549
  0.4780679786983718  0.8242584882857127  0.4894273558819827
  0.4865871210837422  0.8176434961857700  0.1630003072540383
  0.5195003423707691  0.5079052521486633  0.8092672764933716
  0.5004505400074557  0.5025085065190458  0.4973613221521666
  0.5065480071122115  0.4845664254569376  0.1688499732859403
  0.5049913431002476  0.1819249296552836  0.8329646824608832
  0.4854462827172110  0.1593528865063560  0.5011755335928723
  0.4948655372216449  0.1874395890413339  0.1595425091196868
  0.1600151650522914  0.8251778309744950  0.8510772070988140
  0.1554997665542330  0.8451104177014204  0.4898516429780914
  0.1643786015641624  0.8281611198617146  0.1721436840538292
  0.1829046644218642  0.5108269627273732  0.8330833856828099
  0.1689684628524419  0.5044843969508767  0.5134013986555735
  0.1703330539583263  0.5000654144565763  0.1642678649536632
  0.1726929687460864  0.1504901849322854  0.8370907934997208
  0.1684034788354599  0.1642320767767292  0.4796151499887291
  0.1522036367831006  0.1560937097931409  0.1643514572038244
  0.6607952732341781  0.8361584457984450  0.8253250856063298
  0.8465803498114822  0.6599934718442575  0.8315604865027311
  0.8500998274678684  0.8553245627444991  0.6947206106338740
  0.6511517700441195  0.8181900492198797  0.4974168681345960
  0.8419060663221377  0.6608839079503467  0.4901662146132789
  0.8052071758084086  0.8096923236163642  0.3358221478761601
  0.6390176449203286  0.8593700268467481  0.1543161665804817
  0.8301800341304820  0.6779679007489031  0.1713731252465546
  0.8310358956964878  0.8031061571282946  0.9924878328550359
  0.6846129613546036  0.5171335369744383  0.7986484392925922
  0.8356246740000517  0.3651687977791431  0.8250327809466060
  0.8413099591462690  0.5123161780463868  0.6603571614775997
  0.6683242639487916  0.5112513307943017  0.4971898259556859
  0.8195140719125393  0.3304396236722297  0.5037332803362751
  0.8523352698627862  0.5027936047758013  0.3283488448429108
  0.6768063621840724  0.5284560915706914  0.1674897444829765
  0.8371470873552112  0.3130560185974566  0.1816804069751867
  0.8482708585886880  0.5202940305009391  0.0065949144836063
  0.6450164490810752  0.1932535570630267  0.8225646284153874
  0.8093506146026979  0.0118846429181871  0.8484187731409050
  0.8432613559050897  0.1880610805692314  0.6865281450212612
  0.6332525630311312  0.1515898597582662  0.5036229171087949
  0.8403768514181091  0.0026990379380814  0.5221169357645340
  0.8403697259859609  0.1171387394467799  0.3521820996034561
  0.3204059909182236  0.1383660900688057  0.1779708705618654
  0.8514201376566372  0.9825117113185904  0.1632315396728766
  0.7943015399636564  0.1950114335623627  0.0432344141661314
  0.3210388386036077  0.7909587527900455  0.8375016394397314
  0.5076009516537759  0.6784318230613372  0.8435315363953075
  0.4946276854382824  0.6600126214431562  0.5022422836592244
  0.3242627727674751  0.8613565649413916  0.5056223700492074
  0.4855728805940747  0.8092732186527271  0.6577946779412345
  0.4805005040688488  0.9899960400572889  0.4821285652082540
  0.3977793379876801  0.9193206599354352  0.2102969521913239
  0.5055996363845067  0.6690324064077710  0.1538089451221231
  0.4782920654423568  0.8269624278443873  0.0031847800121455
  0.3597207449813161  0.5021210206605671  0.8112687132188710
  0.4828641637570277  0.3476636352610429  0.8359939627737878
  0.5140459455174056  0.5202209543360082  0.6615969461860097
  0.3271177026624988  0.4642557050012282  0.5113661161273695
  0.3209691227277012  0.1918718102646829  0.4970703939963805
  0.4963465744878519  0.4625385568242859  0.3353505738212484
  0.3460408464208337  0.4904964449062061  0.1545273587214026
  0.6769144177431863  0.1410509205139915  0.2007962207993978
  0.5391220821202211  0.4951493116136956  0.0197337546392086
  0.1866364880533543  0.1897424598864970  0.0032754661386086
  0.5248166839762577  0.0088872005846884  0.8358739640187435
  0.5121978270393266  0.1393115863324053  0.6776923662447967
  0.1957369401972626  0.1477432296255557  0.6749766859172411
  0.4617008610535176  0.1731966598848989  0.3156959396762252
  0.5283518699716980  0.3419255166548616  0.4812701125760127
  0.5300555769925424  0.3236359695619944  0.1765724842600386
  0.4558569540711785  0.7662757398819546  0.3270732305467091
  0.5516991176286902  0.1643343024368127  0.0168137204095038
  0.9843901563969156  0.8689378628056401  0.8424554341992606
  0.1616212718711372  0.6762373114158626  0.8450856903118553
  0.1527472343822850  0.8378606143737120  0.6830771686784837
  0.9847033515281653  0.8487239834504930  0.4949744643240952
  0.1972942317330804  0.6512871654087619  0.4987512672460219
  0.1162919243374239  0.8327910313417712  0.3340925504356630
  0.0056517424937169  0.8165332243037389  0.1237712000756613
  0.2029404079733015  0.6654775849885125  0.1643742707323223
  0.1758589885310432  0.8318520937145810  0.0193385208854038
  0.0145261481467657  0.4904198465106109  0.8549804864413745
  0.1792335486625704  0.3393003212185087  0.8413166605886361
  0.1464064195997681  0.5129738230453554  0.6857043478999234
  0.0120930079041255  0.4760149757144398  0.5167935901831270
  0.1690041304985939  0.3246415461739361  0.5165986124488847
  0.1851370299256273  0.5036365514960379  0.3306118982874038
  0.0157175274869234  0.5193647284013132  0.1699804473875285
  0.1751458582777601  0.3165600915553626  0.1490693181811450
  0.1650212467187503  0.5168239855300828  0.9979921080497305
  0.0028258020499596  0.1455696894224269  0.8561783687505030
  0.2176638787029487  0.9939718334400457  0.8541030866372840
  0.3400857260174059  0.1718782929958068  0.8597992218733637
  0.0107202147072224  0.1740455377176909  0.4955150660029444
  0.1663934996884647  0.0028812924996675  0.4694352556024543
  0.1566632261435650  0.1800162045185333  0.3210015931334912
  0.9863361369669886  0.1566542707790876  0.1667580516692386
  0.1767473193958160  0.9979979739826501  0.1638807940706363
