Cl O  Li
 1.0000000000000000
    11.7780000000000005    0.0000000000000000    0.0000000000000000
     0.0000000000000000   11.7780000000000005    0.0000000000000000
     0.0000000000000000    0.0000000000000000   11.7780000000000005
 Cl  O   Li 
  27  27  80
Direct
  0.6650053143892102  0.6511146930933505  0.6757007005078102
  0.6791262610055140  0.6613115103809775  0.3363270756708712
  0.6628639600869790  0.6647925268979261  0.0104888367236550
  0.6572954753484213  0.3482659727209490  0.6722944200575998
  0.6792744780912825  0.3466771228080876  0.3510891694815954
  0.6516605945375717  0.3199576834160496  0.9875543694501669
  0.6517328205088941  0.9963460284662826  0.6389169930602692
  0.6680198580128990  0.0102131242875777  0.3167452140502044
  0.6665865125595942  0.0125267825967346  0.9765366333008145
  0.3468393035369543  0.6682648795371489  0.6713655632974831
  0.3421910521661973  0.6674384913495752  0.3364353336570348
  0.3362540287410101  0.6602107120848709  0.9966201610224955
  0.3353712646201033  0.3225477780019898  0.6583164274237731
  0.3365230947754316  0.3302599247111449  0.3323814890749295
  0.3295787538656755  0.3194964331406711  0.0041689807317933
  0.3329120188790700  0.9941377989089778  0.6996934475407908
  0.3345807465057312  0.0196323212268193  0.3335427523307725
  0.3470719327024353  0.9748689230340812  0.9856089215162686
  0.0080801839643609  0.6636197455429568  0.6615629524463837
  0.0148796959110923  0.6810929245872090  0.3141259699691117
  0.0001942042123974  0.6887332501791412  0.0041398163709043
  0.9888535147619053  0.3366314375557443  0.6651616600500107
  0.9932404612778419  0.3241726194442825  0.3507847596843013
  0.0059844383741739  0.3471954170260633  0.0088495242776489
  0.9931864006038893  0.9818270542865961  0.6360331363398477
  0.9992012920218240  0.0095349715307239  0.3295814776384813
  0.9874448932423796  0.9568747499010786  0.9815291207257191
  0.8220980165775710  0.8411617902306409  0.8169759554619912
  0.8336525525727458  0.8241987273515575  0.4728277850180059
  0.8329860817544117  0.8417676139048939  0.1606089189434206
  0.8538661890154333  0.4941480624715243  0.8276053998401735
  0.8393562990658932  0.5121279569065110  0.4983450101620526
  0.8324617956957658  0.5018055943626786  0.1728824353336142
  0.8541527447469466  0.1519130908020871  0.8341152918159274
  0.8100186277280108  0.1715365106960511  0.5154700956516919
  0.8441764919726400  0.1779281447893876  0.1625770564192490
  0.5171250672313404  0.8282926929749075  0.8439469307059494
  0.4805389285842775  0.8380700004447981  0.5184059356384687
  0.4911767534423160  0.8432884078436561  0.1851032397200738
  0.4998054088615581  0.4861522749803713  0.8421040348457517
  0.4828702404299192  0.4964182413481656  0.5040271779317050
  0.5132926778415743  0.4981044586719185  0.1842587747969647
  0.4844986850736962  0.1699879134020166  0.8209032021672327
  0.4917424155899144  0.1885481155816453  0.4937251795490692
  0.5109483701793437  0.1554048966807831  0.1737709078973217
  0.1712691412255175  0.8300194766794143  0.8470964526863581
  0.1661032636460489  0.8281191725079302  0.4859479323007401
  0.1737433058401116  0.8510450885037387  0.1768603090439784
  0.1831231680406796  0.5188191020625396  0.8279815902692805
  0.1736274163541754  0.4943312994368858  0.5186971876775344
  0.1596730773211026  0.5080520072905818  0.1539348586303841
  0.1473792372551220  0.1408903407877481  0.8329672065610179
  0.1614840200715097  0.1703912999052469  0.5154624439092144
  0.1548774691795383  0.1797328426653124  0.1778437806220961
  0.6827120132779619  0.8045338301551160  0.8407015392748167
  0.9041216190455759  0.6994125725823622  0.8150586474183349
  0.7617537033626852  0.8263927936575231  0.6628375950927472
  0.6487329326036017  0.8561528897626571  0.4624474878525577
  0.8098157148534214  0.6768478269285753  0.5183688510029691
  0.8444351127712988  0.8372378633290138  0.3111186732338013
  0.6744148928806700  0.8474227779061203  0.1985060358922627
  0.8613023061996582  0.6683882790666279  0.1497749220315466
  0.8107990244898994  0.8346274450672869  0.9988363565586432
  0.6767098488281910  0.4931812708822994  0.8486433192291177
  0.8486124783391128  0.3315424822551504  0.8184714055341348
  0.8028193501919001  0.4975342621584074  0.6651320247299389
  0.6884571358600619  0.5084016392907720  0.4503380183434167
  0.8232164665124088  0.3302425362275783  0.5295270348348899
  0.8863167835231441  0.4761579657132343  0.3323190403301062
  0.6783725036433621  0.5000640739689558  0.1861868317169584
  0.8462788993105147  0.3257562669819674  0.1485012915204316
  0.8453747791358679  0.5292281438690409  0.0078511565990136
  0.6345390312785968  0.1870149533501482  0.8231054465260047
  0.8028627505513494  0.9861771091053150  0.8401081851068234
  0.8354175545042303  0.1316822986669400  0.6775573209219754
  0.6475203540906672  0.2025873221552923  0.5596942927077309
  0.8411893974568868  0.0082279456170896  0.4934099601473228
  0.8492898802181291  0.1880724120149204  0.3402766500796914
  0.6676211172104585  0.1861469664038674  0.1797975052919880
  0.8335563592387427  0.0010295068089929  0.2008014169365880
  0.8349314866725623  0.1452627650606244  0.0010578350454218
  0.3436660571063241  0.8352684910481823  0.8594717898825359
  0.5192778789045830  0.6555167122008886  0.8586294504434483
  0.4735199730640130  0.8584039595258095  0.6660742416753339
  0.3325870020081194  0.8163723308155685  0.5035105031301268
  0.5273485239187042  0.6740237671586263  0.5423658490039927
  0.4803975940181977  0.8264028340391867  0.3434554430114825
  0.3254455578800994  0.8163520881106014  0.1995680896510623
  0.5188476809386239  0.6630653788247299  0.1700430113505954
  0.4929331724668944  0.8460133998154965  0.0114519441405758
  0.3401206283021704  0.4806795382363076  0.8310921652853327
  0.4719091395735574  0.3153063146687278  0.8364412595874576
  0.4849975462949034  0.4908592301955325  0.6759662847969776
  0.3312850114673457  0.5050047919410763  0.5305601415255869
  0.4625460383327019  0.3400509567350031  0.5272260465612888
  0.5073622535382062  0.4922441955839661  0.3498578057384515
  0.3176799501871264  0.5112519336063583  0.1827931017438275
  0.5252398008568797  0.3594054522934803  0.1633318765234118
  0.5197613151846053  0.5099088301317964  0.0092935442155933
  0.3153399137356438  0.1630131274639901  0.8386317631773490
  0.5124347110342521  0.9956190250016672  0.8440629618908202
  0.4836233095401023  0.1619382094661839  0.6819463442129247
  0.3301023516723525  0.1819425160968073  0.5055662307903476
  0.5088376633324324  0.0051814634330548  0.5012661539450233
  0.5167904553182355  0.1682098549258284  0.3254168447320914
  0.3430090598739146  0.1893186946316249  0.1722084949571473
  0.4700707375938626  0.0007966299075952  0.1848752056486204
  0.5079037863814839  0.1765923691740239  0.0276086894740604
  0.9852226642731289  0.8558150795021675  0.8239274622893055
  0.2136685596423044  0.6750761853898618  0.8319201728893035
  0.1409072193803614  0.8345777289838879  0.6918393589844068
  0.0057143949966531  0.8068506482240014  0.4825353361265800
  0.1605424104072638  0.6674309610633274  0.5249741266045277
  0.1620703398995269  0.8306726682832900  0.3357870812731709
  0.9913584331060205  0.8344695519685440  0.1321775337496167
  0.1796472121999728  0.6810096865843847  0.1611175169057170
  0.1455333859599994  0.8491733670316683  0.0242148304536853
  0.0169901218904721  0.4959317686623983  0.8020212118280958
  0.1611205015757119  0.1692887303724557  0.0090326673775876
  0.1968671954904976  0.5048474656380726  0.6681093217764883
  0.0292058807827186  0.5143103229290055  0.5280708151249724
  0.1860023689389588  0.3310652402428479  0.5191792474536190
  0.1530812833610521  0.5347888149234814  0.3147905987012940
  0.9931979250288607  0.4957549688772163  0.1404405148249819
  0.1607193417700280  0.3616906107717973  0.1490102842154749
  0.1551557861301298  0.5389746419419718  0.9979895275089984
  0.0066224618661841  0.1841949826066026  0.8169909350636666
  0.1583104902430101  0.9921561032489132  0.7948725410544026
  0.1542399960360693  0.1622896633098213  0.6800747846824938
  0.9768258903044532  0.1776997665919498  0.5215739594512173
  0.1741360548018817  0.0096313812086366  0.5195544257474776
  0.1863400779859236  0.2001720638121523  0.3315112551883972
  0.0032033886590191  0.1542383602002961  0.1581237625400294
  0.1696459191996221  0.0197539545802899  0.2126795528133658
