Cl O  Li
 1.0000000000000000
    11.7780000000000005    0.0000000000000000    0.0000000000000000
     0.0000000000000000   11.7780000000000005    0.0000000000000000
     0.0000000000000000    0.0000000000000000   11.7780000000000005
 Cl  O   Li 
  27  27  80
Direct
  0.6575966532405999  0.6399887200615572  0.6716338836787471
  0.6857664824435250  0.6504410407712780  0.3274388513727632
  0.6547425532964798  0.6530453862215148  0.0078087033826094
  0.6765057688043926  0.3255089057837954  0.6688684062969725
  0.6379152379969054  0.3311176735052375  0.3116917475383437
  0.6647469839161003  0.3438475009507977  0.9833862720423084
  0.6844106260648338  0.9958719739595688  0.6723805156087507
  0.6684002658523184  0.9854488723292989  0.3113948275418875
  0.6513136010167063  0.0051689663215090  0.0169240857866000
  0.3653294425210190  0.6751293676323350  0.6425926465124017
  0.3515164684180833  0.6572727107851876  0.3395974904122689
  0.3099524259498755  0.6645663598118546  0.0182983857998540
  0.3208504302948552  0.3369952643486416  0.6760318137598818
  0.3131893356876269  0.3523713396437204  0.3378903016461703
  0.3186342791977708  0.3065360256993565  0.0018820850240675
  0.3501838911501044  0.0086040597319018  0.6538614769696722
  0.3673401908908030  0.0187590657124196  0.3403772394075986
  0.3348410948619913  0.9698475906156165  0.0109645246397700
  0.9824674227108873  0.6748631760620187  0.6441182582149462
  0.0095474061862619  0.6666266218379879  0.3189610648336404
  0.9885751402153710  0.6809638010287496  0.0128094903165504
  0.9960997379467144  0.3352899176686950  0.6613890911803482
  0.9947084381730874  0.3416550540612298  0.3349653522346658
  0.9986859358119484  0.3317816544708607  0.9859139001710585
  0.0238876913670668  0.9981905866707664  0.6445235981392058
  0.9936554284753163  0.0249738405576284  0.3500166940566638
  0.9967880557043841  0.0060877890258074  0.0283125873201283
  0.8277125401549028  0.8289303630805986  0.8576544234002277
  0.8300703294586415  0.8351479503966288  0.5049529003994779
  0.8383410938540666  0.8453608808774098  0.1820135989878836
  0.8241628603827060  0.4839609460961014  0.8236694318560170
  0.8310308053239166  0.4860387787901462  0.4961926269125403
  0.8362278364263295  0.4905978003174085  0.1648993939521640
  0.8487894874790237  0.1594988872033631  0.8293448385622105
  0.8359714018398072  0.1870980340678578  0.5052982814316251
  0.8084204326131341  0.1751298991247966  0.1613549469192012
  0.5082469071583543  0.8371641238113440  0.8401759812526840
  0.5290243029343731  0.8432218747289547  0.5005680471057518
  0.4962542785422829  0.8242612617237258  0.1735552049601192
  0.4797405632280574  0.5035772203152120  0.8510902000043424
  0.4969606679748121  0.4820206018541927  0.4735555338312012
  0.4763986140942323  0.4916176682790568  0.1453950416488159
  0.5068392294549476  0.1606147258292601  0.8514357834635392
  0.5141453884732843  0.1596124588995805  0.5221330460466275
  0.4941093210385675  0.1814528902055900  0.1542754049829703
  0.1688348110606253  0.8267588066625566  0.8470272462050019
  0.1885887457948643  0.8489736369182836  0.4735786105148637
  0.1453511579362130  0.8595498024969929  0.1703207243469639
  0.1686241958367960  0.5178755335124369  0.8298359265847103
  0.1619644673588762  0.5196337743804624  0.4986365286832087
  0.1552949818971623  0.4826951697545136  0.1555870411726609
  0.1778016309876939  0.1526257095229185  0.8396181732746130
  0.1732194720486542  0.1654849182172755  0.5041389817181638
  0.1802234884526532  0.1701430176639989  0.1696587878945424
  0.6820007725239202  0.8088257943322735  0.8227215874386411
  0.8520153649425680  0.6657698291075538  0.8410199401081692
  0.8219371344861722  0.8108034256367317  0.6768371900196997
  0.6639848055886822  0.8196617952719394  0.4915829176520406
  0.8130625706869911  0.6694467140377635  0.4924831512273338
  0.8560448777933031  0.8418162212960447  0.3283874042848128
  0.6716078843959825  0.8416477210198994  0.1649207702486092
  0.8718611509505948  0.6832275832106213  0.1567741948481567
  0.8419472102877115  0.8455982063504431  0.0008901083469410
  0.6704631189446875  0.5106339082375351  0.8552374444271656
  0.8223619883780202  0.3185660021060919  0.8421474587748320
  0.8263986266609035  0.5252524610273382  0.6718121004532767
  0.6687530152290736  0.4557832627236492  0.4759740512498409
  0.8635806700567855  0.3355061704858576  0.5081371588616099
  0.8712813998803395  0.4968623911943721  0.3311682256369522
  0.6568922475931575  0.5007876541145269  0.1925148665582147
  0.8032353042212419  0.3365650258972725  0.1633349668628453
  0.8390044068104260  0.4856018197607281  0.9891320297392767
  0.6549618222766825  0.1486344452632187  0.8209914839305200
  0.8584841237418291  0.9867853969247464  0.8348953072933474
  0.8301951864628782  0.1663887145086430  0.6682541211720434
  0.6646760129924860  0.1865183842111272  0.5150659938593612
  0.8512418507003684  0.0208448828884047  0.4838740907465000
  0.8467983340476479  0.1710916819109258  0.3487441566516171
  0.6472240483030391  0.1841604127230439  0.1551054672214955
  0.8203716446548429  0.0061057639152335  0.1472806394951414
  0.8552490156048197  0.1768803263087048  0.9775565501354752
  0.3314452394048389  0.8286981387692172  0.8708687802318785
  0.5085056089278327  0.6758947443071381  0.8318940428841173
  0.4959418931192318  0.8515197643490354  0.6703953540180450
  0.3579553894702229  0.8088605308139969  0.4699108752872991
  0.5263135618268295  0.6778680031873232  0.4906501338071602
  0.5235825375289090  0.8589096471951156  0.3340296331975652
  0.3388872067307993  0.8330614943102681  0.1463575620272928
  0.5114734323884574  0.6636983931082786  0.1805762859644053
  0.5268554995242066  0.8017552603997530  0.0098449689471734
  0.3161265724210464  0.5107935017234951  0.8427754684537289
  0.4707425998993972  0.3253835022265247  0.8459863663155975
  0.4603435984745595  0.4943431055904066  0.6653130585673851
  0.3347245373667911  0.4839991643230791  0.4776026173498475
  0.4841649707672891  0.3077281793229792  0.5063761649857090
  0.4847039530297410  0.4813899606236501  0.3100401249973795
  0.3451885178745731  0.4965851875925537  0.0941882854560433
  0.4430129280732751  0.3167461829295568  0.1694543770597854
  0.5229954990848655  0.4892876114811231  0.9900351497977814
  0.3317230705305112  0.1359217026606506  0.8643275525488356
  0.5182927948377472  0.0012401121399030  0.8640895793092433
  0.5037766296496673  0.1511556033173936  0.6874126268610299
  0.3264610401024493  0.1611412183427473  0.5229113375671994
  0.5266355018066250  0.0001049369073054  0.5203841168228869
  0.4982062825822527  0.1747726558675387  0.3439062311353190
  0.3256465951108062  0.1614786237491376  0.1669573685526360
  0.5043073528884926  0.0049323360588744  0.1731129423419997
  0.5138747839932852  0.1955855573480697  0.0029947341587631
  0.1342746129334242  0.0052226231636190  0.8675837130990106
  0.1685153811762458  0.6670496134009788  0.8368337487209893
  0.1333675069597946  0.8370914120151026  0.6967519631662540
  0.0158411554145614  0.8273689217902628  0.5037397146053944
  0.2229117095412044  0.6753796484365473  0.4874291145928081
  0.1493376145534832  0.8488585773832511  0.3270520335235484
  0.9880411199459740  0.9023138122729405  0.1900586977083363
  0.1267559358769913  0.7041905236203679  0.1315294668770236
  0.1262659814459695  0.8359939335226105  0.9998622223368355
  0.9942712488829004  0.4692877380028873  0.8303636134177905
  0.1643614870248409  0.3194393533691891  0.7809216162440427
  0.1790968604650086  0.5033130530153924  0.6593164001333649
  0.9928199468851208  0.5022146838438819  0.5012581209180774
  0.1958899655931889  0.3429197372967493  0.5094854444686433
  0.1701653640581076  0.5332920537320400  0.3172943209920659
  0.0022177502109156  0.4297807389707231  0.1575655327920800
  0.1834673414382081  0.3305756548370405  0.2040893213750772
  0.1493658430055597  0.5275589148312806  0.0068870359456787
  0.0209560264381894  0.1751837042345989  0.8307213424999679
  0.1700519644248824  0.1328111074018934  0.0054766954510719
  0.1775069376887840  0.1227494101699212  0.6765143593608856
  0.0209163785701734  0.2050740823889008  0.4906257211049700
  0.1728499414694813  0.9935784969946795  0.4685822655894937
  0.1622647881297669  0.1934699922519665  0.3474015390019744
  0.9546002523112767  0.1677924550059335  0.1454120657636932
  0.1716470794549310  0.0015928289385550  0.1597890218697149
