Cl O  Li
 1.0000000000000000
    11.7780000000000005    0.0000000000000000    0.0000000000000000
     0.0000000000000000   11.7780000000000005    0.0000000000000000
     0.0000000000000000    0.0000000000000000   11.7780000000000005
 Cl  O   Li 
  27  27  80
Direct
  0.6666466903654905  0.6350548591018382  0.6785600899011959
  0.6940322766925830  0.6725890041079167  0.3368229470750125
  0.6630253514177104  0.6431849771831524  0.9784822771133413
  0.6418453687253073  0.3462580172363932  0.6734852437659639
  0.6483214553837663  0.3523125698066191  0.3445170777767471
  0.6712898810600056  0.3470617740798137  0.0339485412403462
  0.6495962194863595  0.0176698017587311  0.6681729507014689
  0.6685588972474950  0.9991579489240874  0.3381757468052535
  0.6575924523170219  0.0026820131741461  0.9918377679817759
  0.3079859781776144  0.6601909545967658  0.6741652367112161
  0.3496491289293408  0.6657526782718647  0.3219976757820863
  0.3364645491166964  0.6545656688280707  0.9966765421102211
  0.3222006485179155  0.3320231851619450  0.6543456042780068
  0.3512028779917894  0.3476987310343060  0.3008660529118494
  0.3227975249165731  0.3265685251534169  0.0063275860241721
  0.3325952370330704  0.9997167226412853  0.6894860089363251
  0.3441457042445470  0.9817453288179109  0.3387643641802845
  0.3306817751033578  0.9877474097665241  0.0071813676522423
  0.0172935183268853  0.6759451231352188  0.6429908637808561
  0.9970024797899572  0.6868707182870686  0.3362486412923932
  0.0083650070863823  0.6749655381564548  0.9980358274133583
  0.0171628946820712  0.3220039166395837  0.6678754234238635
  0.9978943493325919  0.3436331456833197  0.3513366831384964
  0.0031148954997465  0.3347255457896323  0.0244532905607898
  0.9999650006107573  0.0122415686015374  0.6331158245313848
  0.9916962326521096  0.9897964788419797  0.3350636333436239
  0.9900978458948705  0.9981056252247028  0.9963454021373105
  0.8239424268846703  0.8303974073730913  0.8134932244183896
  0.8442593011226894  0.8263922667391365  0.5073440119719355
  0.8296616388044125  0.8397684842397037  0.1540863105308641
  0.8435253816114051  0.4821815868222131  0.8210729838370604
  0.8265721162015258  0.4864927566698594  0.4952615462312204
  0.8386946624980754  0.5136697216795619  0.1673736220712161
  0.8297385610832871  0.1680800682148752  0.8328107567975968
  0.8267411832734104  0.1860222909759182  0.5072126773021093
  0.8246001528544588  0.1563892279658047  0.1584671557690067
  0.5186570111445689  0.8348118555014792  0.8494166573902422
  0.5153701626536639  0.8310464694651537  0.4984495293510665
  0.5086108805527164  0.8276242377634293  0.1568422637199515
  0.5019198163675075  0.4873588610445783  0.8302681920829194
  0.4841613771248600  0.4839759001904898  0.5016938681615407
  0.5105472167390417  0.5146506426768538  0.1539121929040903
  0.4963763111268791  0.1745605677830170  0.8542550687314592
  0.5014611166729549  0.1676357712049065  0.4708765765467990
  0.4870179061935762  0.1565796106060195  0.1550781828315431
  0.1572571168486706  0.8279211577598855  0.8560886529473720
  0.1913654876796554  0.8494459546886968  0.5176166989177788
  0.1847783495417473  0.8421536416805576  0.1734955929703345
  0.1666003701173058  0.4983568845947999  0.8272701665064837
  0.1539295906421344  0.5009243073511770  0.4889809231319229
  0.1657585873526048  0.5038410382244650  0.1750739166766131
  0.1623401815221192  0.1698239165196690  0.8428391547798982
  0.1630462470713688  0.1652126586922393  0.4948267329285289
  0.1618426057126773  0.1644148835681366  0.1766146699224728
  0.6684957804934079  0.7969213174317512  0.8045150179697771
  0.8396455028357863  0.6547382581306195  0.8184822414845612
  0.8336454031419218  0.8183599614082229  0.6597234837065949
  0.6811688473942404  0.8546003141690394  0.4865566162996627
  0.8258601397824258  0.6716025770948737  0.5115506484911317
  0.8316131165340529  0.8261737264963125  0.3248476462143929
  0.6630875370073691  0.8072271214429207  0.1906807790510210
  0.8337174671716044  0.6716494187141674  0.1761695530829530
  0.7773269590908772  0.8122443973252265  0.9979205306591269
  0.6623123223779521  0.4642647281704938  0.8166122203997078
  0.8795468702461182  0.3320372740846020  0.7957089554842040
  0.8024268606293239  0.4889602209491093  0.6630255951970451
  0.6543035795556202  0.4935114692776642  0.4847080119966645
  0.8167099513124135  0.3308823670381186  0.4894565862132380
  0.8448124937640281  0.4967928927236380  0.3187055237024798
  0.6672581415117242  0.4955226225015477  0.1919949354574799
  0.8500548685255671  0.3374495256262242  0.1730652533054406
  0.8415886405709807  0.4957934698940064  0.0103414038201278
  0.6639817382565822  0.1678066601202381  0.8289990554523069
  0.8292781610015171  0.9875643878799029  0.8168293841385942
  0.8290954908318948  0.1546081128411665  0.6719670408934375
  0.6393336134075895  0.1655832621347756  0.5212601833847927
  0.8429735654740041  0.0112257175516559  0.5139224862321176
  0.8235089900859165  0.1696304569882992  0.3284130140829392
  0.6712615007876418  0.1582049581159364  0.1569405825379763
  0.8404629842331744  0.9927576108234438  0.1335572522593805
  0.8130995434253157  0.1669080864467521  0.9820341139987862
  0.3317952858181837  0.8272346061782241  0.8656018336028529
  0.4731775639535251  0.6605803432695114  0.8049244874058498
  0.5258002568733309  0.8226479331159769  0.6591625988373688
  0.3525383297238736  0.8417987465770760  0.5079293905141717
  0.4525534864249264  0.6489298973382026  0.5119045719447751
  0.4922284999083169  0.8051733775677870  0.3541529697097380
  0.3410673556148024  0.8264530758248574  0.1728440410255610
  0.4829867739264438  0.6604014382430129  0.1466078456078482
  0.5254981142589932  0.8179638521574284  0.9902235571225134
  0.3121400241493065  0.4705545009724363  0.8277069231088521
  0.4749683955765475  0.3326345350946540  0.8284189804987722
  0.4985721183054718  0.4542966129635840  0.6586559239320443
  0.2943211604323324  0.4843375563574306  0.5171682015465296
  0.4980611114612843  0.3163367689570167  0.4786338240026207
  0.5277982523389857  0.5081564995255643  0.3129226282329116
  0.3475537255673846  0.4754523044100267  0.1673863850966978
  0.5060775060260937  0.3437523347301655  0.1462656932871431
  0.5043147712775657  0.4909457064230945  0.9852683010927195
  0.1519204515673953  0.2119771026732370  0.0005847246888553
  0.4940041899880239  0.0388103137067866  0.7872258855990848
  0.3202287661416682  0.1476344301305607  0.8195535664022358
  0.3484055385923968  0.1766669022056553  0.4959815792468973
  0.5065523593992101  0.0218337944895764  0.4910422782641246
  0.5174330967168529  0.1454923976977131  0.3203389075662687
  0.3185531762380231  0.1787072454101011  0.1843373023528009
  0.5014817642320212  0.9816543378590842  0.1634628630491701
  0.5164377629136245  0.1271364848966115  0.0095566814452216
  0.9688940938387446  0.8377029186248690  0.8446913622843806
  0.1687066944185917  0.6592158230130947  0.8358672433059771
  0.1850060192445114  0.8565225614327076  0.6777482764611985
  0.0060573146819299  0.8333058792227528  0.4872454350642804
  0.1610433528711120  0.6856028771895740  0.5167169106819948
  0.1755928780369775  0.8523227669477900  0.3464734137555797
  0.0065791089901111  0.8181537287300190  0.1774374346658573
  0.2167410341316379  0.6891982245041766  0.1838661938801034
  0.1259008935782394  0.8310846067213116  0.0228035278183445
  0.0176995439727756  0.4885999008006963  0.8676417314677894
  0.1623923064874092  0.3354597689414910  0.8665813376107969
  0.1494237770648779  0.4889869818050756  0.6580793712091735
  0.0007927569205235  0.4898755150968981  0.4707726504994983
  0.1796520262077843  0.3291773847268614  0.4903378726166822
  0.1761288846217992  0.4940031645813132  0.3337711568741846
  0.9896392885318372  0.4975985118959156  0.1789293220219268
  0.1683506657236317  0.3231541273785147  0.1696529000437401
  0.1774908138119803  0.5179896768611637  0.0064280151441897
  0.0183395550453798  0.1537669980857294  0.7937646841575318
  0.1602043635996964  0.9795129658444860  0.8742784237474568
  0.1754392763916878  0.1780687500100314  0.6677163967336427
  0.9897098508058452  0.1916046217246734  0.4925164734960527
  0.1636262511754363  0.0012176524176170  0.5042364328762183
  0.1493537777911019  0.1503550091927183  0.3459746739906023
  0.9963816788862205  0.1296024815797513  0.1718834234613511
  0.2008930001702530  0.0109106815994232  0.1434888698692347
