Cl O  Li
 1.0000000000000000
    11.7780000000000005    0.0000000000000000    0.0000000000000000
     0.0000000000000000   11.7780000000000005    0.0000000000000000
     0.0000000000000000    0.0000000000000000   11.7780000000000005
 Cl  O   Li 
  27  27  80
Direct
  0.6550059085708207  0.6791957438457725  0.6942768997134726
  0.6863034381181999  0.6634153407616823  0.3311345538594230
  0.6832135106612143  0.6574961309168661  0.9728081954901636
  0.6500856357307170  0.3298035589811459  0.6627773884559321
  0.6872209994489450  0.3477211261275392  0.3359595847726570
  0.6531893282270803  0.3191843371689720  0.0181831106179266
  0.6549653017046568  0.0135378586262192  0.6435990854014879
  0.6532098138445069  0.9795954324298779  0.3339767713357273
  0.6663672481897904  0.0021358909495038  0.9737983623429491
  0.3167000459354820  0.6532079972674724  0.6937280794964068
  0.3033111160161955  0.6760103517921622  0.3623413556031401
  0.3387265178214909  0.6697443439258509  0.0216116479222482
  0.3554163446689294  0.3418138189932435  0.6552268595032337
  0.3444386447944945  0.3306688941330762  0.3250651431437515
  0.3364750229615341  0.3482067891051079  0.0324750865833277
  0.3543824282700339  0.0332259172726501  0.6682249432750170
  0.3433071990430679  0.9864517719752972  0.3276496305004157
  0.3579700833567488  0.0018329163283627  0.9959609695827839
  0.9994529020684415  0.6427928016786610  0.6807755822962092
  0.0007915226141202  0.6637248112352181  0.3350866586063642
  0.9985197437335194  0.6714128286400526  0.9730697109956326
  0.9809386002223256  0.3407152878800933  0.6450481796792571
  0.0033825826426631  0.3383960811720219  0.3022569182346212
  0.0049871677794214  0.3585922279176177  0.0306967497699462
  0.0079975837890504  0.0068793016948494  0.6509947576611889
  0.0032136914292779  0.0102440137504100  0.3230687670944940
  0.0168186568729409  0.0221406906797686  0.9955750341889888
  0.8307371623283849  0.8481223718432630  0.8223518462732498
  0.8087821674336145  0.8264633252951105  0.5001400069500551
  0.8311506803054511  0.8448119608437764  0.1644939851406205
  0.8280907930226364  0.4794187881390342  0.8327978917444306
  0.8278713621007939  0.4968239921800072  0.5101706316299031
  0.8220670498493706  0.5064195201592938  0.1659849514536138
  0.8167381172813925  0.1666060820715363  0.8193694480650487
  0.8248306649022881  0.1539383187594050  0.4982539941282778
  0.8248149565632337  0.1511206455628731  0.1765479795167993
  0.4840065490409370  0.8199501944865618  0.8256316503028260
  0.4954826647970699  0.8225885476811435  0.4928213784254588
  0.5082575120184769  0.8058570613468827  0.1747707712342198
  0.4967361740594477  0.4881138801159779  0.8360403682260479
  0.5135034090106800  0.5081388545483726  0.5077033697777027
  0.5086743902845676  0.5072938430722294  0.1751090268342186
  0.4973434956938682  0.1779911056553176  0.8311736170978771
  0.5101560753173336  0.1804226998613660  0.4835261307316528
  0.5032344062371407  0.1590132559868093  0.1640706393302927
  0.1575512314755062  0.8409400981793246  0.8364546959113128
  0.1610842312588101  0.8375836957541530  0.5038925591114313
  0.1509722410263473  0.8338949081134229  0.1738711449400755
  0.1668461654073852  0.4778835004235154  0.8445695914784919
  0.1694854497663952  0.4782734963774100  0.4939622167919901
  0.1676026960201176  0.5004557358781403  0.1665548139624929
  0.1772196104172020  0.1870621249062039  0.8373838360692992
  0.1762285073393118  0.1629739233979515  0.4950020035753260
  0.1841411985265752  0.1496918041114235  0.1819814251705220
  0.6656555956539700  0.8106923148261251  0.8221148446834957
  0.8687739336987944  0.6382583952806388  0.8414870323661142
  0.8240805512270302  0.8317507198324963  0.6805872441691960
  0.6548211736452916  0.8330838234108043  0.5217492564439887
  0.8164914801640745  0.6810445910612303  0.5133981285098446
  0.8215844637629567  0.8492617932204468  0.3347947790434446
  0.6667994704262463  0.8154321846795627  0.1803667658088276
  0.7945983469756833  0.6846814764064250  0.1804792545203293
  0.7927774751784897  0.8692589946616267  0.0114415079894295
  0.6536263682273183  0.5197703533078323  0.8385847952695826
  0.8353065886060003  0.3188723566000203  0.8274889589689602
  0.8393529433872678  0.4901840205821352  0.6757182663434786
  0.6695165677431495  0.5010306286992037  0.5177652491940196
  0.8228410499164894  0.3480288557284478  0.5215895415017989
  0.8328563306259723  0.5029349004408611  0.3406337265630667
  0.6630896708577605  0.5000882093267590  0.1651077237125155
  0.8127562152727399  0.3297080538991116  0.1662488049915064
  0.8085335060457997  0.5191486188674753  0.9902216819603906
  0.6534398519437522  0.1752087256148958  0.8466011493489820
  0.8391539171120322  0.9945081161509435  0.8370345279523882
  0.7985733664646469  0.1756396725609386  0.6499893429908868
  0.6714542399480026  0.1571890441432963  0.4763747474354940
  0.8215044645929270  0.9853511849624236  0.4976186161047730
  0.8062009796378599  0.1448812770962984  0.3352758671696908
  0.6735504125327475  0.1696968496007783  0.1109551276367123
  0.8332342214422968  0.9938397621284629  0.1876147472930891
  0.8762541799798474  0.1584087278456742  0.9788619257005001
  0.3245072726298672  0.8619512971977126  0.8551224374610791
  0.4520327107206096  0.6630823887503848  0.8501651609562956
  0.4872125076827939  0.8259474602017309  0.6706694118414244
  0.3446740269678512  0.8406189679077277  0.5193987140286284
  0.4835750555418600  0.6632525489283375  0.5320944932444341
  0.5154370731599497  0.8115212940799346  0.3500692157168842
  0.3368485211108806  0.8382162397989623  0.1814691227932166
  0.5177317861950110  0.6503684720709287  0.1634757872021318
  0.5200388067946924  0.8041770787762598  0.0115662473329435
  0.3389840455140813  0.4656575948754043  0.8048108136819478
  0.5078566254893099  0.3231528182642315  0.8145295792490740
  0.4851449987682823  0.4971404261440516  0.6697653321521874
  0.3449487204742535  0.5090122867822896  0.4849494762887039
  0.4999305133886534  0.3350668039715060  0.5271931270907695
  0.5206595290998011  0.4948468467004683  0.3394088202428074
  0.3351518585513648  0.5003541984700256  0.1645961197085315
  0.5249116307343534  0.3534901755869102  0.1368794841844082
  0.4645459412230228  0.4974080751891255  0.0032011965295815
  0.3410131337745655  0.1714293518694382  0.8416245208182502
  0.5101306909653049  0.9776882647162410  0.8396407357314822
  0.4718456225757700  0.1754817389767860  0.6661895797759930
  0.3482558926409454  0.1774221844322195  0.4879961248424702
  0.5132689984871619  0.0117786714117366  0.4903974764472979
  0.5380734779893198  0.2140640512460567  0.3131164816828685
  0.3364651647642152  0.1348873321978508  0.1910381125862916
  0.5370436101314179  0.9696693954807494  0.1552585141545821
  0.5003776747413748  0.1618740259022159  0.0130528032665922
  0.9916310380006115  0.8247881200028597  0.8085813818507449
  0.1751925869126245  0.6858105335186655  0.8629771737840219
  0.1984289247891022  0.8330079537525880  0.6542968691516390
  0.9864839462839368  0.8588425845105175  0.4842011844568930
  0.1601604756603452  0.6684058153026117  0.4920137754680946
  0.1725278574734709  0.8537943777750222  0.3307162788466894
  0.9961246686324006  0.8414058423352058  0.1689684528892355
  0.1731737212181486  0.6633080544253572  0.1812946711618108
  0.1429381948228066  0.8306547797855817  0.0080540804559733
  0.0149022939105728  0.4624649559334157  0.8550272967477339
  0.1640787447259339  0.3272185453141525  0.8577944745167255
  0.1560890401676234  0.5145491119302789  0.6477468561346404
  0.9840751795232459  0.4879711690459603  0.4963295606524731
  0.1847284191549634  0.3281715313785900  0.4730685874040505
  0.1820455117667495  0.5142993574363958  0.3227105117019876
  0.9767668924905496  0.4885919723218890  0.1976072752021889
  0.1662882764584941  0.3435827480094916  0.1560332328377274
  0.1891980691397964  0.4943144230744257  0.9986892108250638
  0.0201318297364864  0.1647989145856057  0.8249147346637142
  0.1372435777895994  0.0144296509935413  0.8732237071550480
  0.1956951677260111  0.1889376115213983  0.6577837965384380
  0.9928390726588654  0.1603790920190490  0.5213878431895076
  0.1365782506840959  0.9983694133885718  0.4760758031685411
  0.1985536198516991  0.1684425812369643  0.3393574037721911
  0.0172609106348769  0.1789399014798268  0.1893232518350105
  0.1845757891595121  0.9962529841820001  0.1383277889966835
