Cl O  Li
 1.0000000000000000
    11.7780000000000005    0.0000000000000000    0.0000000000000000
     0.0000000000000000   11.7780000000000005    0.0000000000000000
     0.0000000000000000    0.0000000000000000   11.7780000000000005
 Cl  O   Li 
  27  27  80
Direct
  0.6946036083526760  0.6650310212758833  0.6719421800285367
  0.6510081092275030  0.6533863242727851  0.3163995124148455
  0.6748832461446249  0.6537430007343039  0.9969585530616060
  0.6629339369171829  0.3239654706723907  0.6786402886750739
  0.6483146149045912  0.2998935139348744  0.3434239688853266
  0.6687957384507128  0.3164301035057125  0.9923688559290120
  0.6368024671336170  0.9965512710384087  0.6874074041962901
  0.6392782714073134  0.9979672128261180  0.3219620053127329
  0.6558572896877625  0.9894923200449287  0.0015829873085078
  0.3210838600399886  0.6826165878181125  0.6734049178894534
  0.3236061010788793  0.6503613758987433  0.3294757937559163
  0.3242417422575488  0.6543197963696343  0.0067543165014578
  0.3258429604631450  0.3682367725028878  0.6738569779767770
  0.3350101325626246  0.3324660707400113  0.3308589575436079
  0.3232997074964986  0.3610057948907988  0.0064764847432009
  0.3462975053376450  0.0070500781712094  0.6617696539868699
  0.3571473118020982  0.9781602804762297  0.3184410701815893
  0.3688085268524494  0.9911100487067637  0.9914682560872757
  0.0037856463586544  0.6708249692623637  0.6864121108784716
  0.9956977773329446  0.6623433973374120  0.3305520376508979
  0.0252127342809280  0.7013248957486323  0.9932457673778452
  0.0091609916536146  0.3340143947575288  0.6659588817797948
  0.9798242755183729  0.3168477105091822  0.3381153599931356
  0.9978245636878834  0.3319495578800729  0.9858064151563327
  0.0271417021226453  0.0023396741051893  0.6683755368695775
  0.9706479385342195  0.9952709183677833  0.3522875206530059
  0.0129519632038492  0.0402680647680363  0.0043349134644758
  0.8361618968077058  0.8331521920427362  0.8275354240891702
  0.8481352138832384  0.8179497586708642  0.5198977655464911
  0.8300891662884197  0.8233903499994404  0.1690177216240836
  0.8309391979553946  0.5144746885213735  0.8318384563694194
  0.8275903258164709  0.4987638393715498  0.5056489660056156
  0.8248816089794238  0.4812813891684227  0.1681562730715071
  0.8281342068135246  0.1810847465445705  0.8390671263131425
  0.8285180084996993  0.1674234510299529  0.5083187763637159
  0.8123511316923787  0.1675554435876903  0.1729148876697442
  0.5065878666588259  0.8217508528387515  0.8498014279030539
  0.5020695734539572  0.8197244771007329  0.5003697900064465
  0.4984026884200015  0.8319559291500052  0.1683560078414167
  0.5041698350651054  0.5346111597727266  0.8272796372692069
  0.4947825235491095  0.5022070830010300  0.5106030036776045
  0.5047043639324645  0.4729616374269775  0.1563820733633824
  0.4832644649082850  0.1880689655831117  0.8468907698412560
  0.4925505628994459  0.1489609603871999  0.5207069069494328
  0.4865809487192617  0.1713242405198026  0.1736794141509387
  0.1715629416445419  0.8569626332747836  0.8057871476975229
  0.1865532112256543  0.8172283086658397  0.4808720975530327
  0.1775670898793998  0.8419989018798827  0.1499364924613087
  0.1625618204539067  0.5251588691737864  0.8302822781823750
  0.1687414628194762  0.5016679387969384  0.4867018346418948
  0.1679181717657625  0.4695255597150557  0.1620506481566496
  0.1738224728583706  0.1818209129961062  0.8122292670970472
  0.2000030514441865  0.1941969182015479  0.4924567546931987
  0.1712934707560209  0.1578281659631257  0.1549383231597246
  0.6793496775393680  0.8493572061062143  0.8395620199641760
  0.8629344935429872  0.6862610844203748  0.8227162028322617
  0.8195359154517331  0.8426191383600722  0.6743981464513652
  0.6488044478793831  0.8009181944781726  0.4873940136955371
  0.8123742083760411  0.6651183078197010  0.5080908839911973
  0.8538585553147938  0.8204893274652066  0.3483173594132342
  0.6634684657845422  0.8447094810457866  0.1626637187192807
  0.8224885973690426  0.6642049164861791  0.1402895075259959
  0.7904283631839158  0.8520945056426749  0.0151670758812122
  0.6783311455962475  0.5174710137105918  0.8253543940852036
  0.7997524769750050  0.3430379651079724  0.8139000999650251
  0.8627040505896425  0.5202418351664775  0.6615499801525678
  0.6647829055888705  0.5047294859815604  0.5257094056571127
  0.8662136498060046  0.3271858218774790  0.5038113332487096
  0.8148167741281817  0.4815320748267343  0.3474999185012559
  0.6825928827583643  0.4636256614107778  0.1562619430307556
  0.8453073079993457  0.3301305281690314  0.1369039859697291
  0.8237946566935148  0.4709789454462778  0.9932825913885183
  0.6531091805468497  0.1616421344913720  0.8527422880806624
  0.8508973714613984  0.0125361460016629  0.8210051274668095
  0.8483913245864811  0.1755397231010696  0.6651590520211379
  0.6517730405627967  0.1868389581012006  0.5111116218826057
  0.8326675201054790  0.0095528153638643  0.4987384708985643
  0.7981587283275415  0.1780356688662082  0.3406961429347908
  0.6308143511210930  0.2029409975245118  0.1647421283304170
  0.8228417111144872  0.0261414248909606  0.1877558875444299
  0.0336089981435599  0.1916683816814124  0.8115404384539897
  0.3489701901598505  0.8551347979870814  0.8474012098897042
  0.5277433961636288  0.6808946623627979  0.7995878597867829
  0.4966452167747647  0.8153376400219199  0.6718652577496620
  0.3264022461586789  0.8344438385612716  0.4595089588660881
  0.4856181247002103  0.6567650341588305  0.5104167303064978
  0.4763445771861290  0.8063396766932598  0.3218778361454802
  0.3330913670442108  0.8455425088405893  0.1096381757279263
  0.5038541298384398  0.6569995256531684  0.1900249935577081
  0.5283614464316818  0.8211934497147795  0.0041981841137761
  0.3386704792028761  0.5269723321409618  0.8527056892700821
  0.4948348711841541  0.3477847984519187  0.8216207486102666
  0.5166185318240837  0.5219519388820913  0.6758547710153822
  0.3211691830414246  0.5068060231424873  0.5258951527178900
  0.4796530448859389  0.3540748141663208  0.5392433138293730
  0.5151813402568352  0.4842147595451936  0.3310090572009383
  0.3473670893826923  0.5015386688830190  0.1660294530314422
  0.4387140364189977  0.3319548007406593  0.1800706838755859
  0.5174209526489765  0.5026340421341944  0.9953620662720035
  0.3379315192580550  0.1797864401761008  0.8251099431800217
  0.4792709840723913  0.0111988686306244  0.8200304007372374
  0.5192877349010351  0.1763445123224434  0.6912037210858051
  0.3509702503814120  0.1587739253818899  0.4922846917009790
  0.4938321690363179  0.9579024415569085  0.5182807782737257
  0.4780299848016832  0.1672812561489121  0.3393810958493134
  0.1432322841506539  0.3111666965737128  0.1857366169958548
  0.5222821977613963  0.9959229713195047  0.1777672057492737
  0.4791718353034629  0.1675934998730284  0.0029940543998273
  0.0020207908704888  0.8358078729927693  0.8028440203369579
  0.1623397276163610  0.6763824014840093  0.8051073166939107
  0.1711050719008928  0.8674488402726190  0.6529018917365574
  0.0129926523060020  0.7993403970822230  0.5079732333899288
  0.1867034525819196  0.6587978875624385  0.5214220817159176
  0.1644858794396695  0.8211753122511291  0.3019691155677109
  0.9952226241147610  0.8226740821268872  0.1654857947041429
  0.1861016369632501  0.6652544197678992  0.1429114236441441
  0.1507829649236396  0.8412541322787361  0.9702840521583025
  0.9862506574799546  0.5123831717587710  0.8352840076672658
  0.1719867429157314  0.3614378551856148  0.8137015595147086
  0.1442936192934272  0.4886935389899667  0.6480973261980452
  0.9912944664877957  0.4940987055848505  0.4686312124032458
  0.1801843501754056  0.3334704327896550  0.4656296645961460
  0.1888024996307697  0.4941168025630910  0.3279484816661546
  0.0090406740759669  0.4869233954114207  0.1901007012742847
  0.3292584311014105  0.1317439021675429  0.1642161418845540
  0.1578811605124976  0.4975548640600995  0.0034823735998384
  0.1363675173141231  0.9957972084542208  0.8433631141320632
  0.1669566534011815  0.1801726709868716  0.9845984099866393
  0.1792295220248163  0.1411012038734253  0.6423878712620973
  0.2142789762097179  0.1423646624252943  0.3235494382362467
  0.0762359701104697  0.0772839509808729  0.4792597661024096
  0.1756524741155041  0.9854417446596755  0.1546843683045609
  0.8154928908383451  0.1719706305748095  0.9999155659689015
  0.0071028854755602  0.1744930133126350  0.1935422242738427
