Cl O  Li
 1.0000000000000000
    11.7780000000000005    0.0000000000000000    0.0000000000000000
     0.0000000000000000   11.7780000000000005    0.0000000000000000
     0.0000000000000000    0.0000000000000000   11.7780000000000005
 Cl  O   Li 
  27  27  80
Direct
  0.6583927610007408  0.6464562746614846  0.6601905656147541
  0.6741902084424132  0.6817291475811071  0.3074111689279961
  0.6598694258426749  0.6717054459063582  0.9787006622089520
  0.6684565027459147  0.3310408223174424  0.6881790606665847
  0.6759324170881047  0.3002018507656810  0.3570180024482905
  0.6418070221422427  0.3220231425941442  0.0143377519976936
  0.6853863675888521  0.9958908679196374  0.6501445969645414
  0.6686850428849923  0.0130804469835938  0.3215928234164960
  0.6741565245813481  0.0010264724547546  0.9861338113065612
  0.3299048936722763  0.6723201763707966  0.6855379544641277
  0.3398462277805147  0.6585314125430016  0.3134355193824112
  0.3176967612191262  0.6658317416623077  0.9775733636817057
  0.3490789255159725  0.3143548213412427  0.6698699388780144
  0.3192647611458715  0.3422493497566161  0.3568952101999606
  0.3186672572233600  0.3583800730928656  0.9919848133569912
  0.3191809158618982  0.0018504657563699  0.6601948570682071
  0.3290355302220578  0.0172718559279788  0.3622295273274597
  0.3212273926059490  0.0017433720420342  0.0243583944936546
  0.9884495520722771  0.6817692281369419  0.6763421794225295
  0.9872767049285167  0.6855938848134107  0.3089515982905764
  0.9940754204513247  0.6372082734410717  0.9920657961959652
  0.0040065797536865  0.3325860896865098  0.6567356621872129
  0.0237616755968306  0.3264459104742735  0.3519583383417837
  0.9927451331393450  0.3415508144936142  0.0034468914298137
  0.0116441140663791  0.0207913905169725  0.6970199406047010
  0.0317294699573524  0.0172542080847548  0.3283585629403282
  0.9731647055878084  0.9857237077762483  0.9969447767645666
  0.8349522652747355  0.8440124032062912  0.8111002145417585
  0.8428170419793420  0.8269574384466578  0.5043300773631461
  0.8177834555423674  0.8339348559363300  0.1551096518501646
  0.8412542241850682  0.5166915075764708  0.8223406647266651
  0.8348604443650052  0.4901748191173823  0.4962325095514187
  0.8227681001842663  0.4900932815017751  0.1514515420288119
  0.8538878582966254  0.1667370309746227  0.8504557576553593
  0.8543920635919438  0.1685939246653049  0.5307987501260525
  0.8438975975704818  0.1702342112914875  0.1845234560014279
  0.4984345419826586  0.8327874994187991  0.8157445388277519
  0.4932820043457634  0.8364379878617318  0.4982808688670314
  0.5050724083392142  0.8151571560131829  0.1481115361946636
  0.5065299235822495  0.5138713748912853  0.8350378609318185
  0.4986436086395581  0.4784404064458703  0.4704670683590664
  0.4920601951593639  0.4572093311661306  0.1712152539895499
  0.5086927351517458  0.1548576198074319  0.8494486425978401
  0.5067143751099089  0.1654913353963622  0.5083728289429293
  0.4853109534400799  0.1568942788395738  0.1825639621606203
  0.1692497689289422  0.8352435872978576  0.8402226654404313
  0.1637613440885291  0.8323436173842823  0.5037742126847515
  0.1621692351001680  0.8274330610425628  0.1543421699340450
  0.1530287024004249  0.4886353614046405  0.8155738523394698
  0.1678073648651647  0.5266348052270907  0.5007504383875979
  0.1690429694549991  0.5058841298216282  0.1512911793200632
  0.1602193767869247  0.1746168581303722  0.8496008677391923
  0.1806986481255419  0.1750856589347034  0.5068501726753102
  0.1750365003911018  0.1909352110989609  0.1743974881811854
  0.6584474163041517  0.8468160988150434  0.7707588516962637
  0.8228118244269951  0.6871150026354524  0.8401625041212694
  0.8553076006521921  0.8164801382390077  0.6568513290033945
  0.5945728563138377  0.7095641624438777  0.5038040909172828
  0.8696319054825946  0.6770555118583216  0.5016978374654645
  0.8780050979651528  0.9629821001010829  0.1680585458488779
  0.8220734515206181  0.6474740778672264  0.1728375043656069
  0.8131878756899348  0.8194593785852337  0.3222656909295998
  0.8041285364798143  0.8519006614486595  0.9791570871295341
  0.6813692432735569  0.5000147980018508  0.8092382095680721
  0.8384498808097571  0.3196560214034158  0.8679951708302637
  0.8542988661782758  0.4970590796787963  0.6571475202624719
  0.6772515936853956  0.5149962215208927  0.4705420068528544
  0.8390841252417840  0.3191375045156855  0.5244299498039188
  0.8215345907143959  0.4868825860669561  0.3122880211659456
  0.6497384783170106  0.5014602890781357  0.1466900428451170
  0.8768598466889387  0.4869293467154299  0.9973422356344566
  0.0123913150795474  0.5072521723087096  0.1688759665181511
  0.6802813193378093  0.1611102877311699  0.8530711151370983
  0.8419396421752515  0.0303043092824579  0.8079502877072503
  0.8493840993539230  0.2066847035725664  0.6852590909605019
  0.6746626731763433  0.1516636853323255  0.5339898911078735
  0.8423653867461180  0.0100381139214927  0.5442981242436391
  0.8411184361201495  0.1207202816656393  0.3754336413503972
  0.6776285938227012  0.1482923033054783  0.2067749255531452
  0.0092629264831244  0.1866301140628049  0.1938656667707573
  0.8184491976233229  0.1613908010152504  0.0402764555625349
  0.3237544109232118  0.8205526465950926  0.8325411257011864
  0.5022385915854710  0.6816265575523345  0.8338298572702066
  0.4859699344575764  0.7882180023014329  0.6434753139298770
  0.3400313270747331  0.8243700968685930  0.5015224141842203
  0.5016450349904280  0.8109667541433700  0.3462391669074517
  0.6660230057255994  0.8178061973559870  0.1799766003398507
  0.3419274612489939  0.8209566100154143  0.1581400050264324
  0.5157881676113758  0.6360326176219971  0.1807274832378973
  0.4903690791010091  0.8360851170287465  0.9846808354901148
  0.3259403396617805  0.4963391681193492  0.8362278890714199
  0.4880748114054569  0.3339999211722264  0.8440980098501375
  0.4915215772656015  0.4757996646121027  0.6598732814571011
  0.3421584709980775  0.5133115426427174  0.5065571392782077
  0.5005276781616584  0.3151786589479904  0.4553860507315868
  0.4804124617505207  0.4937665632305005  0.3375938719847267
  0.3204572588954787  0.4957063001912603  0.1540307561608323
  0.5307354214444332  0.3164483623743418  0.1854703490116701
  0.5002700290128382  0.5253013372800933  0.0103780208116562
  0.3509046960477679  0.1854691746902414  0.8023777139422893
  0.5213526847797599  0.9808229931846499  0.8188693647081007
  0.5076889398978413  0.1882890239775572  0.6582219625567114
  0.3330681806920626  0.1503907430731795  0.5154795568319309
  0.5287362114164805  0.9844030774997070  0.5044118174058029
  0.4940640610094592  0.1229017671304677  0.3485955392218425
  0.3454352791073189  0.1883714927575928  0.1863706230723734
  0.5053540653361251  0.9818234281495298  0.1475148622230557
  0.4425556480272680  0.1684048780436179  0.0147588584587844
  0.9972464553664370  0.8403832910598039  0.8317496359369758
  0.1721344657216199  0.6661376494197693  0.8355850617324870
  0.1340287578194451  0.8218014595499179  0.6803812468300090
  0.9940147189049737  0.8404605372219580  0.4847853408633887
  0.1316075683637498  0.6681598146751547  0.5349232417484928
  0.1622469266018314  0.8574865953988989  0.3269489216945397
  0.0041497516615343  0.8179229572782368  0.1422172856050716
  0.1782486735433834  0.6596818864370972  0.1586658902587706
  0.1770639894778935  0.8270898257371420  0.9861246464218875
  0.9962534558001253  0.5134336061536685  0.8130729875970243
  0.1746479416692599  0.3224151830612405  0.8240002426506813
  0.1409366213748507  0.5034299042714268  0.6555725568452179
  0.0058042771329076  0.4929064911818618  0.4772703985860222
  0.1660603384556910  0.3406056421132942  0.4973628217113671
  0.1995282098588143  0.5413652596899515  0.3522967963688323
  0.1891293501329114  0.3354564242800133  0.1695309192373591
  0.2131826835818581  0.1643361753160667  0.9931354574163254
  0.1791662146314235  0.4880418857804173  0.9913036279898996
  0.0000331520055469  0.1944039200512896  0.8870558637688497
  0.1817850741011218  0.0205651226215274  0.8260173877152349
  0.1538977116033066  0.1718935058176341  0.6632541370698730
  0.0211035617266941  0.1764297138163987  0.5097213169770125
  0.1944897398644081  0.9894900211814949  0.5292528147477212
  0.1828735041044936  0.1504258540449448  0.3332673379240106
  0.8498756430801970  0.3077689989791574  0.1622498409304766
  0.1574464298470175  0.0146193239837370  0.1502585888183430
