Cl O  Li
 1.0000000000000000
    11.7780000000000005    0.0000000000000000    0.0000000000000000
     0.0000000000000000   11.7780000000000005    0.0000000000000000
     0.0000000000000000    0.0000000000000000   11.7780000000000005
 Cl  O   Li 
  27  27  80
Direct
  0.6545539198110638  0.6602822734880721  0.6532563100177351
  0.6521075484303894  0.6617514485291683  0.3048131031619625
  0.6845790334096261  0.6479662474174477  0.0043462786245774
  0.6756419601375067  0.3436124414453384  0.6903766536488778
  0.6539885410613349  0.3311786838026258  0.3280518701630363
  0.6992205009414517  0.3040832766512352  0.9855559409276859
  0.6792568214196970  0.9975929213308404  0.6691223397438358
  0.6615532803929203  0.0248573957122614  0.3469832527022928
  0.6784583681649780  0.9941782985139916  0.0183696845018285
  0.3316838686931617  0.6845735599339060  0.6504476751889711
  0.3195713425355707  0.6641086305517580  0.3308883387111301
  0.3405292425117805  0.6601432465903586  0.9954467226757763
  0.3169239813372788  0.3421885290925483  0.6815428991429100
  0.3400505025393105  0.3311424291180299  0.3310458876838884
  0.3366678250830917  0.3443481018292498  0.9825559378920089
  0.3342677082832670  0.0197215013743561  0.6647838422444843
  0.3308343430938108  0.0216357616257458  0.3411537990113004
  0.3237661168296564  0.9951359574803537  0.0018105850430670
  0.9905782059046081  0.6815061423648435  0.6482478599547951
  0.0046810220156911  0.6636815499623638  0.3175588211309218
  0.9999091756468356  0.6741365022237304  0.9928435241012926
  0.0012393525728144  0.3140481530253503  0.6658414830936010
  0.9977690915743409  0.3419134712174564  0.3578680385609291
  0.0103429274702561  0.3133930181217976  0.9962630862962996
  0.9930997080847674  0.9784974971293534  0.6583890098037629
  0.9830687696429926  0.0188913214751084  0.3620372260759366
  0.0059483488219624  0.9774747926586717  0.0166956368392681
  0.8280781924168935  0.8209403233022738  0.8467050722685037
  0.7957348842455081  0.8437847016824752  0.5019462199010732
  0.8255584614734187  0.8352245475768418  0.1841144363505278
  0.8547157298246352  0.5137600689210297  0.8339337067923509
  0.8343437144582856  0.5102614007653498  0.5131598687446037
  0.8463891765343210  0.4792036258155998  0.1500696883412543
  0.8516379479906294  0.1462119388163182  0.8474283036315652
  0.8240918370131484  0.1727124128687280  0.5075932058494931
  0.8493913316225696  0.1583605172314554  0.1884300393505617
  0.4945495069402470  0.8418777579037621  0.8153086368646555
  0.5055853033779371  0.8145748832691646  0.4985762548635737
  0.4854272534030891  0.8423808296076026  0.1654920182171829
  0.5021946907813711  0.5130863107289073  0.8145358513598345
  0.4898916200419256  0.4931719019510424  0.4931314935377745
  0.5089407746386803  0.4763490805319706  0.1503878125711635
  0.5009945008038765  0.1567609285636090  0.8453664626744444
  0.4877969454173483  0.1845704072540637  0.4905796576642220
  0.5137301176630573  0.1606013543072471  0.1620766184283848
  0.1864294647382038  0.8362195170113806  0.8300848398407416
  0.1533903540689869  0.8498314405685837  0.5046387830595565
  0.1741157058505357  0.8368478505735569  0.1679351912504724
  0.1635068989100673  0.5051821417204350  0.8221087282588166
  0.1767080473767271  0.5173780070943752  0.4929823048021676
  0.1701580343597286  0.4963915041760470  0.1611655043991717
  0.1581255377362247  0.1671083920616007  0.8414884462276827
  0.1498207453537501  0.1664311521242241  0.4982369061575067
  0.1684017165486750  0.1687338509063949  0.1762281416505413
  0.6872798960771458  0.8525028298576715  0.8641230292136057
  0.8145196286299835  0.6659214052669645  0.8703866079553211
  0.7985452194614894  0.8213885777610636  0.6616382473488390
  0.6404032569038683  0.8912293106717173  0.4746316449830049
  0.7876818503847083  0.6821717225041591  0.4878407791967742
  0.8067560654502121  0.8349583964919353  0.3270717993593530
  0.6511832665215953  0.8362157923536667  0.1640482680135251
  0.8613602762738297  0.6535911283320435  0.1508868559767154
  0.8621976764929052  0.8569246463306673  0.0112658108342274
  0.6810831182618216  0.5128954220210683  0.8074228887177032
  0.8327691558951309  0.3453245289460390  0.8522060678287011
  0.8290230409139342  0.5350125204972147  0.6584564584967129
  0.6570742985210976  0.4887179805479689  0.5353777758914857
  0.8207478231234165  0.3393115346491106  0.5050945273191840
  0.8192667858572095  0.4686338569316604  0.3458077588248580
  0.6837059250589884  0.4646381493982203  0.1675468450770326
  0.8367154307430416  0.3198320606301669  0.1544206958322755
  0.8188013655846076  0.5029612335876833  0.9994219717138515
  0.6536470466285412  0.1534985028962467  0.8403109685651611
  0.8428969050734105  0.9908467326226454  0.8250788998732174
  0.8492731142255624  0.1529387516184987  0.6829613459653588
  0.6612892345493304  0.1387769349808665  0.5085896732441996
  0.8256438047175597  0.0090427204634930  0.4960700865324269
  0.8258700371882711  0.1618811183579671  0.3413155382239868
  0.6785234687041520  0.1621709028009225  0.1518654591842886
  0.8066006014760654  0.0009821439810471  0.2031723155531232
  0.8351088077352192  0.1392008273442284  0.0114951910455611
  0.3366116515768082  0.8737167798090093  0.8066258119669216
  0.4878691713886706  0.6857098234491148  0.8028227744993578
  0.5206742156603539  0.8382522084733489  0.6717805307892851
  0.3536744907486740  0.8727123367885458  0.4964886651857349
  0.5346296984062572  0.6660546427510575  0.4721300110177706
  0.4879496968690294  0.8532810404074236  0.3397398865547639
  0.3236734862117274  0.8199340179529534  0.1519088190583280
  0.5293332756224562  0.6118532212708739  0.1458387909401549
  0.4842959695933022  0.8179951716712122  0.0000907806436823
  0.3517330938861070  0.4975434355449002  0.8464058041182710
  0.4940036421581062  0.2888984949180947  0.7795984000615154
  0.4826297115766470  0.5230794459191562  0.6655557775556965
  0.3344651353848103  0.5239350645727022  0.5005553436427893
  0.4931460397194735  0.3331964968764433  0.5168525429846875
  0.5063614896571926  0.4772461562452890  0.3367092904660364
  0.3115482071500071  0.4896632743845188  0.1120739388124604
  0.5440525561121754  0.3336708239392305  0.1782971282825155
  0.5195981944351269  0.4510032301281746  0.9674855881700469
  0.3378340882870616  0.1558991460064006  0.8119559590971978
  0.4764098165922505  0.9958011163183721  0.8374674353130337
  0.3175669301324414  0.1855771579428934  0.4637749964842728
  0.1451699029167573  0.1673080661033954  0.3504616376675957
  0.5032147611700694  0.0292839540388958  0.5672797121237704
  0.5039355229231249  0.1594995742399496  0.3319085103133529
  0.1769431056668042  0.1663055461399037  0.0233043283972898
  0.4874880417395516  0.9970491878841282  0.1727733191938200
  0.4767190846387366  0.1713796736591093  0.0037617932916978
  0.9948259310030881  0.8173170410548172  0.8201853474036701
  0.2040550713508577  0.6517448721828213  0.8503364515979471
  0.1573122364574122  0.8105163828649168  0.6674070134103405
  0.9887702400970002  0.8485909676082047  0.5028905420877848
  0.1631782585949277  0.6739689735974232  0.4845512991542235
  0.1568206727313456  0.8351502163642029  0.3440920681226733
  0.9895957920078249  0.8466008667974873  0.1733142042705388
  0.1541064093931378  0.6718487121937676  0.1975243579548650
  0.1391602081807385  0.8353279473138132  0.0046698993814697
  0.0038447028835776  0.5099786506623704  0.7967582220328782
  0.1696692742482999  0.3302450902495468  0.8461941463951359
  0.1645520398888670  0.4973503201395149  0.6468441498215620
  0.9892934077461966  0.5237528397425891  0.4769355886915313
  0.1294795697484179  0.3277611484084537  0.5130257405814923
  0.1684078096028701  0.4868241135566643  0.3258325409612721
  0.0092628981894457  0.5183550414923135  0.1647010243992441
  0.2012913348417104  0.3373652188092365  0.1688990476474771
  0.1422717953320390  0.4668027423257536  0.9925248046093406
  0.9978192745051232  0.1636086105571476  0.8588197643955261
  0.1615593685078952  0.0021780374444125  0.8280578163361640
  0.1883925415377905  0.1928202811779627  0.6571042862903260
  0.9818778128693011  0.1714810693682891  0.5067934165762461
  0.1433203370852732  0.0073798803010545  0.5271864438703514
  0.3313363621769929  0.1710085034208340  0.1663531226437749
  0.0122758654124851  0.1477971754063430  0.2002483985195719
  0.1849320511236784  0.0085199886650379  0.1653360785394694
