Cl O  Li
 1.0000000000000000
    11.7780000000000005    0.0000000000000000    0.0000000000000000
     0.0000000000000000   11.7780000000000005    0.0000000000000000
     0.0000000000000000    0.0000000000000000   11.7780000000000005
 Cl  O   Li 
  27  27  80
Direct
  0.6588699000613752  0.6624369031653250  0.6658622810789259
  0.6804360730791390  0.6614333103384701  0.3383862656009428
  0.6543198662951182  0.6963991014237431  0.9730342260726935
  0.6568350628726805  0.3182534092011723  0.6692674684230681
  0.6664374733716560  0.3327376516435193  0.3356054037633935
  0.6631365764435039  0.3228344143060288  0.9759004235633695
  0.6709517585209412  0.9894113312256879  0.6609601457024724
  0.6750850354773372  0.9812164149806053  0.3346029850134267
  0.6468956923068240  0.0039969383805725  0.9978179011348216
  0.3480834077902564  0.6621110765861759  0.6571579179431071
  0.3615744014279864  0.6581618867887499  0.3179751413285972
  0.3444461175909623  0.6756303290400399  0.9959519134089330
  0.3605552622037169  0.3579339084576088  0.6828074494068183
  0.3371147766476467  0.3155639431765490  0.3316489468348845
  0.3278951354568926  0.3370316354346483  0.0136601380915716
  0.3240629080087661  0.0083672846132671  0.6562753360065451
  0.3207228616892078  0.0160621541737329  0.3467733243364035
  0.3391159299752764  0.9878362096623013  0.0014961654155992
  0.9923570180188693  0.6994884620849896  0.6727928974347143
  0.0003794305975338  0.6666349972630254  0.3390581614642081
  0.9980219608280561  0.6591347511894650  0.0379435222914541
  0.9764788217944990  0.3403423500747094  0.6972128869987285
  0.0015976888497459  0.3446806451470114  0.3368636903041434
  0.9973343088656043  0.2984685739778012  0.0167047117680788
  0.9920210523748698  0.9938126399407986  0.6807747579448500
  0.9876981297392367  0.0010422242854598  0.3408899845647887
  0.9883591362923988  0.9888462510558573  0.9974321273663741
  0.8289613337880781  0.8301539890556261  0.8312644517146084
  0.8380877168370492  0.8367984545340009  0.4950548223921295
  0.8439103284937627  0.8382933378104053  0.1608053346770171
  0.8577817635286430  0.4999038525608479  0.8406881596141352
  0.8244944165684156  0.5054637139070896  0.5053462135973626
  0.8352280703917681  0.4790962951544280  0.1652619281171464
  0.8609016501889800  0.1683971501552419  0.8274810091854526
  0.8288324282428480  0.1766073483774056  0.4902990822579977
  0.8195268567695089  0.1549962669186724  0.1745007796349141
  0.4930594745519177  0.8353584694734668  0.8070865649019996
  0.5104186466817957  0.8335189743877039  0.4844294670403507
  0.4898954183093426  0.8434571708766724  0.1561284196360269
  0.5086313777748476  0.5188171381218638  0.8344917866529104
  0.5141682434082467  0.5084427113408562  0.4947852705327888
  0.5146203034955702  0.4978648858603398  0.1680033369227149
  0.5007530789433231  0.1590655161992577  0.8259328471095749
  0.4913078328057116  0.1629041605848587  0.4978856432255375
  0.5004530820557118  0.1609386749033809  0.1806452705433084
  0.1794011497271277  0.8399370454537273  0.8231537666300627
  0.1603028256000081  0.8267396115234289  0.4943739387678589
  0.1493569573791339  0.8228855624393480  0.1645193852135461
  0.1699375434561110  0.5051386970361392  0.8235892276993131
  0.1588223753722451  0.5103807479143987  0.5035545317807316
  0.1658599845451367  0.4935932297727894  0.1713543547883654
  0.1819140588790285  0.1811804993127349  0.8325541549334672
  0.1447060339713213  0.1699898259393420  0.5132425689217177
  0.1578812616542709  0.1602078727686615  0.1587115102460484
  0.6632122841600806  0.8361055062575697  0.8373883557920512
  0.8138524217131540  0.6722587041007331  0.8594774383645231
  0.8302630206882774  0.8215547260439964  0.6670774101726861
  0.6579946054986012  0.8165661138319238  0.4788496059016015
  0.8700705429183818  0.6698516845385147  0.5082689767967307
  0.8325453451878988  0.8475189910845348  0.3309216264454194
  0.6811390617372337  0.8579332959943273  0.1590787027927977
  0.8468358851864163  0.6618277192020474  0.1897375041490001
  0.8415452518162360  0.8220384457218881  0.9887478472079285
  0.6656681291266794  0.5138931406240461  0.8261265293106994
  0.8475764443049300  0.3219651520693350  0.8290290093196906
  0.8718025087553603  0.5297386037619003  0.6696724034932283
  0.6837888318174168  0.4877168130062733  0.5026189139571560
  0.8209964771501147  0.3330427294500772  0.5174466143746782
  0.8099874415683909  0.5091338782592501  0.3428625147075951
  0.6650591475904515  0.5091642828021106  0.1908693345118211
  0.8143519307009202  0.3123053332590731  0.1540284313013957
  0.8531234312908125  0.5004845347955318  0.0182377474826699
  0.6548307516830759  0.1588037274172717  0.8167148860633331
  0.8444574483236115  0.0030194102504085  0.8044816526560236
  0.8558953863381765  0.1586989612977149  0.6540556019506815
  0.6550416401834223  0.1570076428123104  0.4898037837528647
  0.8435085512855774  0.0066989321092323  0.5094832152114726
  0.7950477585069908  0.1709712934896680  0.3359918774866238
  0.6529190711114005  0.1473189882688229  0.1633563507210184
  0.8325427541216630  0.0066780713691792  0.1802569749766310
  0.8304595368680970  0.1481066319190897  0.0125866092493938
  0.3321918115277823  0.8192120782835729  0.8327349627742328
  0.5219885266473359  0.6915959123891685  0.8075132001518845
  0.5371783690567181  0.8362693911969827  0.6657658043470529
  0.3385256729411431  0.8113917545590740  0.4910597221398385
  0.5054740421103215  0.6660485661001309  0.5184023129615812
  0.5122395184789892  0.7903007992831159  0.3232028603717400
  0.3485475730151500  0.8268879500654274  0.1880200928168932
  0.4801030097815467  0.6595455971294756  0.1489486257034469
  0.4949796975450892  0.8525304370678098  0.0106223267436924
  0.3518332069437570  0.4984203051992249  0.8165306774481330
  0.5053685371320336  0.3315271986146063  0.8409271045035658
  0.5024058553184704  0.5000884255447371  0.6718341624420662
  0.3311358710658827  0.5108326865454923  0.5088944763802116
  0.5375638306447000  0.3341997417378771  0.5032623080918277
  0.5303805448455132  0.5251853311628486  0.3412368230716936
  0.3452459473496192  0.4808308520576421  0.1709238329391268
  0.4992588029480676  0.3419382039634895  0.1685655375677640
  0.5119610598294627  0.5044644935045075  0.9881450662652660
  0.3366637489382766  0.1517785067798199  0.8505204462707162
  0.4785192610303369  0.0100306124983784  0.8488526093230735
  0.5212627447034482  0.1466207262823380  0.6644901900508513
  0.3223653547702318  0.1761137300167848  0.5589866692375003
  0.4949229370003617  0.9949397524881933  0.4626879112267526
  0.4652936492547244  0.1852963675428592  0.3157562777090472
  0.2868070394678693  0.1887363116114298  0.1873308894408811
  0.4846384283148175  0.9954470122179159  0.1740635169649216
  0.4803704159141611  0.1568370069307909  0.0078541450630513
  0.0103320225754372  0.8420834199467904  0.7860791715121453
  0.1493854489863750  0.6708714310439333  0.8172513177449590
  0.2130260033072702  0.8532643565790943  0.6740231275863799
  0.9840391052006533  0.8481327498991348  0.5371695271635551
  0.1526662752725522  0.6638198847686718  0.5301136084640209
  0.0070185947803260  0.8047981387555765  0.1511237144735056
  0.1637069704448445  0.9928000749246392  0.1786837929174141
  0.1814367156532012  0.6579651681818804  0.2121048631866536
  0.1863407740866264  0.8046117439282403  0.0031663065523933
  0.0109300154857906  0.4786725343686484  0.8595647249083409
  0.1809817406163625  0.3282477589537193  0.8498734894199701
  0.1914664294113256  0.4720790400213807  0.6665270919954526
  0.0029978425927500  0.4635513147291044  0.5000984137908924
  0.1656242987312057  0.2378825223801996  0.3830933118985600
  0.1487138668850366  0.5002682212502543  0.3377290254560736
  0.9982117886916378  0.5251608374898387  0.1753862562782866
  0.1439506976781819  0.3429807842401109  0.1378004721318372
  0.2007735595729472  0.5159140103463137  0.0122627082575546
  0.0135061970075731  0.1306539081282066  0.8529812304573269
  0.1896295861199132  0.9917430915737616  0.8441595406035194
  0.1362945827763755  0.1733561877753574  0.6737507012629338
  0.9903256625754289  0.2061384994893627  0.4700053656744608
  0.1211702457602664  0.8534682615891395  0.3468798009645300
  0.1473831721886197  0.9919939625793405  0.4869808980598038
  0.0000610717183004  0.1856608576884954  0.2036247892218696
  0.1690654168766644  0.1697244035918145  0.0110906391927663
