Cl O  Li
 1.0000000000000000
    11.7780000000000005    0.0000000000000000    0.0000000000000000
     0.0000000000000000   11.7780000000000005    0.0000000000000000
     0.0000000000000000    0.0000000000000000   11.7780000000000005
 Cl  O   Li 
  27  27  80
Direct
  0.6631533604676585  0.6622679446344026  0.6412647819288858
  0.6637581315212532  0.6746732005485218  0.3108851123650235
  0.6711314153492606  0.6875475204221365  0.0005620733449096
  0.6588151058807666  0.3566995358788623  0.6717467328931438
  0.6500913097481796  0.3464790346264238  0.3331250233322047
  0.6845572274769969  0.3389442949835997  0.0163858043575204
  0.6846688052667751  0.0091298359019812  0.6612248177637464
  0.6458020020218977  0.9970715310948136  0.3533367974460351
  0.6587934866718618  0.9826678660047570  0.9893303423888753
  0.3301941427671440  0.6525504746003947  0.6592674696496653
  0.3340212083255038  0.6637742852818185  0.3255342518820317
  0.3253257114944608  0.6525185720973666  0.0190678817948307
  0.3024342688252111  0.3366565859244568  0.6761189142535605
  0.3423169724615632  0.3337398955365787  0.3290796199580706
  0.3342016315548749  0.3417692859179771  0.0217263182830776
  0.3078650829272881  0.0014453141592607  0.6392990938203582
  0.3424845415732801  0.9841205698098555  0.3325067706371019
  0.3385603920018985  0.9768546583496696  0.0182615161728075
  0.9943151653786109  0.6782232042039981  0.6670928945358160
  0.0091583970115190  0.6896864455997718  0.2971857808077728
  0.9969128743845413  0.6381275068259828  0.0224806221982637
  0.0156927472355494  0.3694345859423041  0.6564185113526070
  0.0101646498563235  0.3447325345272793  0.3396679109170548
  0.9897823644801261  0.3206801524854660  0.0225294121779104
  0.0253488262060687  0.9879682601542386  0.6493628760509421
  0.0053686058640178  0.9901435159266133  0.3392914775754881
  0.9931377041632871  0.9979210585919180  0.9824122183123895
  0.8732849860753569  0.8153261137811965  0.8566745309150949
  0.8264912205362145  0.8136790053634400  0.4890765632707546
  0.8294684366119439  0.8377015901435420  0.1811314585250364
  0.8340790770368721  0.4989567644509933  0.8405091925533519
  0.8352501580046243  0.4885846858237617  0.4998879085957704
  0.8376381494241736  0.5155449729194974  0.1523529210624006
  0.8361882859236159  0.1785075991482121  0.8310575497209706
  0.8377974999976742  0.1585049625407484  0.5047757931079271
  0.8325805500735736  0.1495240739337278  0.1476192960834453
  0.4840063931593693  0.8311521844076922  0.8276785564370559
  0.4957378503959560  0.8161027858853711  0.5182268681314621
  0.4916061118851376  0.8259818736758359  0.1640732751753130
  0.5042237137743607  0.4942053157703146  0.8347832600555606
  0.5089556484874512  0.4931896582912993  0.4958654402063639
  0.5093577090935062  0.4954721447325606  0.1630400166643289
  0.4965556151912138  0.1707219511773216  0.8387971455380612
  0.4912992729632475  0.1817483145144972  0.5211127086369706
  0.4977761693299051  0.1672469771078057  0.1702192033157599
  0.1893303612768278  0.8411783152070376  0.8369842088812147
  0.1684701930801987  0.8244890956407479  0.4967268077881206
  0.1785769100880175  0.8461933239063870  0.1445658054954000
  0.1590319407971532  0.4905492808262211  0.8453385351627438
  0.1578573882054993  0.5320736273499885  0.4956872234318344
  0.1692188391593464  0.5106002873772034  0.1756162728286569
  0.1545527362555758  0.1641942354998443  0.8464539891772465
  0.1599455345577248  0.1658676594340579  0.5004685908304544
  0.1626631176995472  0.1768755310602461  0.1461118522086087
  0.4732286912100086  0.8042480100901254  0.6739696652963921
  0.8362760582923527  0.6727428966882766  0.8152926930342951
  0.8140660053149980  0.8126179637398888  0.6628684039508386
  0.6743851872602493  0.8299410228841057  0.5188481572323100
  0.8473017738629696  0.6665325157752148  0.5338316455072585
  0.8225160391056111  0.8350057476668541  0.3302261262819926
  0.6549156726521497  0.8499657544040409  0.1730326761510111
  0.8426484618159709  0.6736480694835819  0.1607841392587468
  0.8398579644508570  0.8021116759787259  0.0112096637266335
  0.6874652135017393  0.4716625132087118  0.8439971725608092
  0.8425729970118536  0.3500258399345154  0.7979195939233997
  0.8299306180517511  0.5086836271001061  0.6620151739364787
  0.6611796967333742  0.4874194347550403  0.4958430922600803
  0.8175200585489305  0.3184847096755629  0.4896118208754925
  0.8334289623241513  0.5599201400691802  0.3433890464003223
  0.6589016232017957  0.5226228751966259  0.1467749526165659
  0.8390633168246718  0.3611995701638508  0.1833938034748555
  0.8474955370349139  0.4921072808567127  0.0040353789727271
  0.6669937254831818  0.1695151215925979  0.8018636015883542
  0.8221444640132365  0.9793457129712205  0.8468867782094414
  0.8688605785361254  0.1421544540353195  0.6720463654120655
  0.6658752755483440  0.1551781549502385  0.4991919239135944
  0.8483758517885195  0.0076995755634304  0.5079105379137099
  0.8546517380948546  0.9925660053435184  0.1228727208388455
  0.8392571609674359  0.1716664353056729  0.3077304892229631
  0.0203455656237022  0.1640681436906047  0.1233793653801125
  0.8176526077810545  0.2072690416465033  0.9827345871844966
  0.3285072169487174  0.8246865024995863  0.8605447741631492
  0.5008863394918580  0.6753926667684597  0.8561847384257127
  0.4948869685353724  0.9803877211485141  0.4969623114177069
  0.3252129191423845  0.8031997618561132  0.5108833005943465
  0.5266079349852517  0.6550249428555631  0.5213094677292500
  0.4850460584864754  0.8105545033663705  0.3456695085710870
  0.3422270543660996  0.8196408868303269  0.1323920957620463
  0.4849058575118739  0.6698956792638454  0.1644099923297344
  0.5247328937095666  0.8431518979705022  0.0072889389678984
  0.3436708855405774  0.5050183209971377  0.8117481144237502
  0.5214451140542331  0.3192723330831247  0.8424677147443210
  0.4975260504673327  0.4846844428869461  0.6672158082403757
  0.3493148755686620  0.5086129395743613  0.4705355005686722
  0.5150803217876829  0.3544679800832981  0.5144643970446521
  0.5001902333534521  0.5361745159784373  0.3393532987964574
  0.3436838408717563  0.4985103723210607  0.1738441049796141
  0.6548798025789480  0.1467315118127075  0.1482602914575784
  0.5300921498495852  0.5117459030221070  0.9956079885453735
  0.3288210800892311  0.1138111448508272  0.8164270942206469
  0.5354836728613211  0.9899029604769687  0.8153786030741751
  0.4561466417111290  0.1779659246059996  0.6693157459682445
  0.3323653145737917  0.1450521770086435  0.4858253824260014
  0.5034438433228012  0.1789714000044164  0.3362212260277302
  0.5073846121549609  0.3400132312620882  0.2254699863787290
  0.3212844173894350  0.1814088241094953  0.2010755633510879
  0.4946106556125726  0.9940535930225358  0.1823723363395147
  0.4837434404218477  0.1693936147560333  0.0205954089633326
  0.0321993118142452  0.8318091816401019  0.8885419735781155
  0.2027664162132774  0.6725536273968351  0.8137917369464006
  0.1855923231349129  0.8271407280497878  0.6509746811912361
  0.9822133045961994  0.8134731775393353  0.4941091831234253
  0.1812693517902710  0.6842529797033441  0.4959199335681351
  0.1852159100360511  0.8624695922913491  0.3052667091160171
  0.0210317353672197  0.8671420944226566  0.1296868100634913
  0.1762816100145121  0.6640918933227511  0.1779505401092238
  0.2025137670125841  0.7936309542473829  0.0034834034240245
  0.9955497224084633  0.4931312783301743  0.8520660767023029
  0.1604772092036835  0.3300402982913963  0.8343772723647420
  0.1628630548965065  0.5051135021958926  0.6524121156709441
  0.9982460842370504  0.4926668297074111  0.4915709503476106
  0.1653764296306216  0.3519861839689314  0.4993581165213736
  0.1304564579080416  0.5023204542499531  0.3508352849370308
  0.0009711072846057  0.5025165655756736  0.1675978539933507
  0.2097529834055947  0.1865597423299934  0.9839032542096812
  0.1740795275973798  0.4967224556475536  0.0161832394044226
  0.9913282872067669  0.1224919049926543  0.8198467348561357
  0.1664064897942209  0.0022203546697858  0.8155831353651620
  0.1470723887609980  0.1587131385186292  0.6751253213229592
  0.0143034081576738  0.1864797634026687  0.4928064840879777
  0.1556959632612933  0.9928789822331051  0.5017664316167099
  0.1181382557466332  0.1606721262918126  0.3129098889293497
  0.1663258732216897  0.3286218717116522  0.1617995133398925
  0.1756488837853580  0.0058100607536938  0.1286874479619745
