Cl O  Li
 1.0000000000000000
    11.7780000000000005    0.0000000000000000    0.0000000000000000
     0.0000000000000000   11.7780000000000005    0.0000000000000000
     0.0000000000000000    0.0000000000000000   11.7780000000000005
 Cl  O   Li 
  27  27  80
Direct
  0.6892588756608500  0.6599846626185211  0.6547030677039676
  0.6900315801948509  0.6919719016095366  0.3251913041155663
  0.6623939721909187  0.6707988824076423  0.9872444977247494
  0.6581731657782455  0.3276898307377291  0.6280000249029528
  0.6775745434414262  0.3723307643609240  0.3364202159586419
  0.6600462232688438  0.3170312166216894  0.0256800971942643
  0.6529196170435646  0.0024768051294939  0.6437475133487666
  0.6801294157207237  0.9828589991069434  0.3522881080135995
  0.6635656604398199  0.0007147102402181  0.0004179238069567
  0.3106029863022904  0.6336962309006409  0.6743891792552145
  0.3018429354851074  0.6441019124181177  0.3478251178787008
  0.3030001299572521  0.6539001103595343  0.0058391934736418
  0.3366665822961019  0.3319576002259260  0.6658455027114240
  0.3553490605350839  0.3443873295703502  0.3395562967829525
  0.3464862779901935  0.3218977450801058  0.0173475583891252
  0.3454595275088562  0.0065371726069826  0.6797240631784527
  0.2993836695013691  0.9922683201364993  0.3421060274151884
  0.3513461061132657  0.0162492612443921  0.9896862328934016
  0.0006275565142584  0.6917420254519313  0.6945288488539524
  0.0054705927600490  0.6742357293423529  0.3164835604480182
  0.9996147650385305  0.6839471265648708  0.9891273008126203
  0.9949788313537460  0.3201605363825411  0.6858456191021193
  0.9909768394092904  0.3322391560093123  0.3618562273703609
  0.9795128281581433  0.3389286007781237  0.0124025932444688
  0.0252218428055417  0.0166310095611817  0.6507552948958895
  0.0126210828468512  0.0134356150809796  0.3373562386363169
  0.9903235731604401  0.0174816763430252  0.0302035168641659
  0.8448730506784193  0.8527189788401834  0.8216264776179217
  0.8365882783311572  0.8501813533455178  0.5053457103646544
  0.8373786345038894  0.8331735945738673  0.1523665485439292
  0.8196499925229533  0.4680771394385316  0.8393199782630351
  0.8454332068102667  0.4964927960505761  0.5034410742543073
  0.8235259037283986  0.5111088792303733  0.1417591383501036
  0.8168500215719151  0.1518359972802371  0.8448266417806236
  0.8350649742969789  0.1620518123464758  0.4948524993909000
  0.8573644190594680  0.1646710463062159  0.1695492953786672
  0.4978478655482914  0.8310159651368427  0.8253154272002916
  0.4868222309484946  0.8038430486681335  0.4790703959195927
  0.4926198226218690  0.8244552234862115  0.1456988849256624
  0.5104812567473888  0.4939637939482264  0.8258775266318158
  0.4871081793988587  0.5037185915301937  0.5038022041109190
  0.5162665408561432  0.4943110777946407  0.1853190912853546
  0.5142300032802313  0.1795434324949529  0.8406869276440480
  0.5038775600768177  0.1589241221233739  0.4704905659047312
  0.5066722274391545  0.1502038381000988  0.1825206587798939
  0.1628232644172868  0.8511298455294527  0.8332593123959092
  0.1805451048493539  0.8307054420426486  0.4923859662760787
  0.1515329159646363  0.8457770265696136  0.1457608984523288
  0.1660499819530872  0.4946963369555730  0.8397190834341648
  0.1624424181660372  0.4959476195204043  0.5109745183640136
  0.1608885476473589  0.4798715919729758  0.1566114842609233
  0.1518357367095904  0.1639291612905271  0.8380886550053012
  0.1771542290976234  0.1963407076203564  0.4904307638887240
  0.1704953912987222  0.1516566469142293  0.1663291466006285
  0.6708739246994729  0.8386478697635085  0.8259460279454244
  0.8478061376573208  0.7016376312896490  0.8473351177801366
  0.8363592928525702  0.8145225330129940  0.6552948834263834
  0.6780400446848478  0.8255933493302774  0.4920744310466362
  0.8456774148029890  0.6767562699940265  0.4877023711424493
  0.8368727288213537  0.8386811487704744  0.3094635118216855
  0.6770913095884534  0.8274518725587094  0.1502712463954979
  0.8607674606768839  0.6790973793088722  0.1698903444719515
  0.8231970002580945  0.8624005788009900  0.9976252962134377
  0.5534034025345389  0.3450604399959135  0.8193869057111907
  0.7803432748137330  0.3236495892533616  0.8157030572904723
  0.8224030813692880  0.4878796870287489  0.6794561307355094
  0.6954862604460840  0.4685882272535389  0.5137891450334480
  0.8655938073659407  0.3161386145461687  0.5151367423885125
  0.8590550088074939  0.4902894191134328  0.3068689638406525
  0.5020283484926704  0.4442670625751737  0.0000594001986096
  0.8107480605866566  0.3218059646557853  0.1354166434230744
  0.7772756953030308  0.4916532511178808  0.9931901546636049
  0.6630608883487622  0.1464924292365680  0.8432354841993960
  0.8451613067971498  0.0019982397503542  0.8211626767617174
  0.7935536640752101  0.1489457033796360  0.6516358930473647
  0.6613722014150035  0.1560792933381288  0.4553524233638346
  0.8287039876589624  0.9848509660420253  0.4922283565752054
  0.8449060058021056  0.1949147912397745  0.3379998756834482
  0.6761003077240881  0.1808449979389224  0.1873396168816377
  0.8265852242154743  0.9943662291657797  0.1432312485834202
  0.8479135859352858  0.1608053779094839  0.0078501809603782
  0.3292804848358505  0.8695147560054194  0.8493104009308186
  0.3230143555133094  0.4672603058077025  0.8374607262972243
  0.4782821980915983  0.8404544906964051  0.6530891168369470
  0.3307421295906992  0.7847721534062443  0.4893895196306305
  0.5322944312511602  0.6682697588490628  0.4989591774329694
  0.4512736928726311  0.7923649491269139  0.3256085669930515
  0.3193163979272293  0.8461151607133826  0.0975377853941126
  0.5036431495532995  0.6550894502471665  0.1271805041744954
  0.5111261893276381  0.8151334578488989  0.9817420813796968
  0.4827664835521224  0.4883487509882446  0.6600061705804076
  0.3481701066747601  0.1898956327859069  0.8223329480212709
  0.6642412809607992  0.5382753990043129  0.8318229710222693
  0.1642314380669650  0.4831550801748563  0.3511616419675949
  0.4913259898911970  0.3463337871091590  0.4470944928433587
  0.5093755597166802  0.5234362817011892  0.3298579358624333
  0.4818756830773437  0.3340591371274871  0.1658674408643882
  0.6634915316542306  0.5260766186808574  0.1574392388310822
  0.4861545860532724  0.6639803296665513  0.8051453431802532
  0.1836694853901936  0.1290198777161697  0.0034673441032221
  0.5103630393503813  0.9983155257118450  0.8538096255076083
  0.4845056153066589  0.1600150116153992  0.6373029243392363
  0.3298857821997743  0.2163481721129547  0.4903719790734999
  0.4982321125739754  0.0052138048208869  0.4421083502412921
  0.5015738187953409  0.2154349629637776  0.3192719120864054
  0.3404282841601232  0.1350971729654259  0.1823013493142812
  0.4905196419815407  0.9783201861250835  0.1981416505623688
  0.5073865924974406  0.1611259616280467  0.0156511400072381
  0.0107544271116986  0.8597871646189278  0.8375646928299350
  0.1922829992661203  0.6745500175796709  0.8397941433841827
  0.1880611807181985  0.8483418582597549  0.6751387261347334
  0.0056531123745532  0.8424998945770926  0.5166524756510331
  0.1607713120215424  0.6542547625505564  0.5440504505135655
  0.1650606501118816  0.8377647210312075  0.3179445371936029
  0.9948993357210024  0.8569549672815823  0.1476553524820773
  0.1488617392239507  0.6721724309104746  0.1418978818499475
  0.1188749754299484  0.8474009773328877  0.9988301065883410
  0.0044874165989069  0.5013040011963176  0.8513713512089206
  0.1528840861571275  0.3378963240383305  0.8237839451133069
  0.1711689673064998  0.4728905307964095  0.6787599436262834
  0.9963409898558193  0.5034904157598055  0.5170484229601879
  0.3254644920371076  0.5154574575967984  0.5048641364134888
  0.3198994283156893  0.4768725947467018  0.1534632173282225
  0.0009084970301160  0.4699561482843904  0.1516207465648293
  0.1567993188169711  0.3244152088406242  0.1462088087851340
  0.1856061049743884  0.4910238649350462  0.9990773032266762
  0.9997167182128276  0.1785944342433941  0.8551995706014638
  0.1803078603471405  0.0270717501784924  0.7785019047811014
  0.1316591039315827  0.3312268183339116  0.5277104580933670
  0.0146550622509230  0.1576594692519118  0.5084151926896234
  0.1813700760475799  0.0018573106709584  0.4998371035473891
  0.1505407400233828  0.1555450478686392  0.3292629622780426
  0.0142164800096003  0.1631977215106013  0.1762147322993876
  0.1444907521831270  0.9851417778022578  0.1773363400962003
