Cl O  Li
 1.0000000000000000
    11.7780000000000005    0.0000000000000000    0.0000000000000000
     0.0000000000000000   11.7780000000000005    0.0000000000000000
     0.0000000000000000    0.0000000000000000   11.7780000000000005
 Cl  O   Li 
  27  27  80
Direct
  0.6622862143316492  0.6668748351597370  0.6610701065769052
  0.6663824876233655  0.6847004396974652  0.3514312542211864
  0.6618361785148225  0.7000257867738966  0.0090688224621708
  0.6798765581522506  0.3325314010508727  0.6819005787253475
  0.6588573835081055  0.3278802144878956  0.3335359338075520
  0.6803279704730150  0.3241163668971477  0.9970755754947214
  0.6800092693260144  0.0043800579385480  0.6862585901922873
  0.6575746032943454  0.0036940842228549  0.3203863131463857
  0.6820341066184553  0.9964732953335019  0.9862957521731386
  0.3514443380197405  0.6539436737705748  0.6589391975104369
  0.3365920832010932  0.6789081516127922  0.3502496065614416
  0.3250831540202088  0.6382280068569691  0.9849195556714628
  0.3462379143022229  0.3592777834832218  0.6400327539836997
  0.3310710473629782  0.3443148213111099  0.3391463411880964
  0.3208278135528617  0.3306734041327698  0.0047412326178737
  0.3399702060486944  0.0303285899692353  0.6789653865051297
  0.3148471063703556  0.9992466325780643  0.3429266865833923
  0.3135949331265057  0.9905823651801091  0.9936297948849827
  0.0073109422200430  0.6580224573651995  0.6615843117684773
  0.9931512491686789  0.6825096931951142  0.3306647085350299
  0.0248370938928559  0.6666262142573320  0.9919092921122765
  0.9927056414435637  0.3371747132016177  0.6461871030894129
  0.9951166235152794  0.3178259665713512  0.3437210912971180
  0.0039804599459971  0.3124690180996988  0.0143945155647695
  0.0065607393503664  0.9914677077155610  0.6665285114858521
  0.9702807646574999  0.0011019481284896  0.3278227744565950
  0.0053836431363165  0.9941993253777709  0.9885021070661879
  0.8727855689177783  0.8295951307851591  0.8634885733401998
  0.8079477800543136  0.8527260648968736  0.5003196690572337
  0.8311764459456090  0.8347411502710551  0.1890076964078760
  0.8292427817963393  0.5137030639526684  0.8723624084020025
  0.8096284103914955  0.5045738874104118  0.4823534182053948
  0.8388102938719516  0.4991400976307047  0.1588454081191046
  0.8386952343369191  0.1678204884257563  0.8224112667129240
  0.8338549606668449  0.1745700034215573  0.4928065486233143
  0.8162621067508277  0.1757552542827863  0.1522323188334288
  0.4841267266570611  0.8402398786482963  0.8391787850620259
  0.4837544633127175  0.8489654561389205  0.5008975173132224
  0.4898779220506510  0.8240557550563439  0.1505867083758399
  0.5086617352706979  0.4589331868316007  0.8172652472270280
  0.5146664503012949  0.4964424737959797  0.4909147463879165
  0.4938104723445941  0.5092344463457886  0.1707568128814957
  0.5053505955338325  0.1546024676645064  0.8444681228990886
  0.5171309996310296  0.1663692990280231  0.5105995624060454
  0.4897549678606814  0.1651536841093436  0.1630207392950695
  0.1897861366385280  0.8140142398012239  0.8322432294862255
  0.1679930125340265  0.8310676661152800  0.5058105027795380
  0.1771159037163907  0.8328087006840835  0.1668525315250392
  0.1612186394965259  0.4897214504074197  0.8077046986419243
  0.1857459356395704  0.5036723987874105  0.4894502271689626
  0.1858404690717664  0.4879198091799450  0.1761479715245423
  0.1480665188612962  0.1757274812915715  0.8401472770384680
  0.1675845957186118  0.1740334300409966  0.4984458828292566
  0.1429303474513667  0.1468360806273921  0.1697942317749040
  0.4663407978210684  0.9825962964747657  0.8171359368276987
  0.8361980132813678  0.6689893881205921  0.8460805758059415
  0.8675232753345519  0.8509651115063824  0.7027616578437001
  0.6575746842651653  0.8510295642789975  0.4916707709330248
  0.8019758582057633  0.6920658693559451  0.4872968082145709
  0.8259280793433996  0.8577781582317227  0.3453667827255268
  0.6556729226189236  0.7919532541032460  0.1776051426415933
  0.8293696630710725  0.6757048650079909  0.2127390493916173
  0.8519834365562896  0.8467249935531705  0.0454140849392323
  0.6779398171118259  0.5112721984839987  0.8474633144968285
  0.8067930551921750  0.3372134982243346  0.8152838102940362
  0.8356938079860491  0.5497103017230844  0.6720614500344877
  0.6740080765260816  0.4795039855607263  0.5252581552662733
  0.8327485753841677  0.3336942229949982  0.5103274194804689
  0.8221336247827417  0.4907711561161896  0.3151021574417947
  0.6504311146531239  0.5297474319095284  0.1297575418818678
  0.7880106589614758  0.3566277704905793  0.1583299984865868
  0.8395596788098308  0.5256456121166512  0.0187737742809103
  0.6639496788550191  0.1400966869840746  0.8306582256873078
  0.8392506131903944  0.0154947901716726  0.8366188116210769
  0.8573786032549197  0.1869362921286149  0.6456317242359378
  0.6805148511252707  0.1767120864611674  0.5233042888974467
  0.8358799599009258  0.0022544140312709  0.5324566635795953
  0.7799758435351462  0.1698448095292208  0.3320505848451869
  0.6345975542257902  0.1772306033488976  0.1459430723418154
  0.8105128546569145  0.9982563376269112  0.1691778009232483
  0.8419432168342875  0.1885036645315062  0.9746567066802332
  0.3404901196830674  0.7746617735787777  0.8303480264763934
  0.4856040797509641  0.8025664233466350  0.6861315469759143
  0.6713228007413866  0.8241140540466491  0.8292229369343262
  0.3301254903712637  0.8304879150450244  0.5077630331298369
  0.5170650893836570  0.6873928813997184  0.4892972328048218
  0.4787052039565640  0.8461551209229390  0.3335722087348529
  0.3225079985505342  0.8172812504412612  0.1284458550854148
  0.4956886714822540  0.6718360792346940  0.1580332303104178
  0.5172514032401735  0.8283227553217519  0.9952642990559746
  0.3277987736196494  0.4514836284912778  0.8279438408928703
  0.5288894606360425  0.3261438762266444  0.8672487772440536
  0.4754848325087707  0.4842972961552769  0.6786483452599363
  0.3457748826688073  0.5205095925270089  0.4931822532275023
  0.5153213827777979  0.3462205505275250  0.5108972111398805
  0.5308388736097764  0.4826363822127330  0.3351859571748237
  0.3464969804403909  0.4789611571843307  0.1638153059504351
  0.4626805119089318  0.3063708222575641  0.1890399025514785
  0.4706891737604438  0.4881894420101058  0.9990540756540316
  0.1273260154150796  0.1681661933411831  0.0014239844018720
  0.3170672452803185  0.1504428751916533  0.8359593852640712
  0.4978046009470466  0.1574827515475013  0.6851870223621531
  0.3427324041122641  0.2130664056509481  0.5109065632695753
  0.5150041795909647  0.0056155815575625  0.4931860183706260
  0.5083131963765758  0.1742105132240480  0.3554192290413292
  0.3118913475618912  0.1816954153272434  0.1787248476241390
  0.4679147491030740  0.0024939915052318  0.1585200066367598
  0.4802352690542011  0.1504073998511986  0.0102104876166831
  0.0232185707048509  0.8321753469310752  0.8666304840635409
  0.1694961447127050  0.6473262525460360  0.8081306861252504
  0.1544600658902522  0.8210680937448515  0.6747680211448082
  0.0129171973157311  0.8190407463569944  0.4929254137868807
  0.1708736405430057  0.6620452496378855  0.4914108950866582
  0.1679427903830032  0.8504928896849120  0.3348100096581763
  0.0095152412133692  0.8633721082931288  0.1810965234234850
  0.1737460398924160  0.6537786957250936  0.1927186902959550
  0.1825244913284139  0.8411248897094545  0.9931811292462484
  0.9879465441833299  0.5119861182027756  0.8251686470127118
  0.1798247622523723  0.3527040460160020  0.8625959510219743
  0.1708955633924850  0.5076429648812816  0.6507685130483687
  0.9910078914712405  0.5240727134553039  0.4985712661438224
  0.1297629739379443  0.3394076050157098  0.4937804656446876
  0.1792790998972814  0.4859988979348047  0.3346844441592658
  0.9920813557897963  0.5040427593174872  0.1916080338025294
  0.1783188871871708  0.3322520719650328  0.1391754907318313
  0.1630607661339347  0.5275728390857413  0.0061375155761375
  0.0157231563119323  0.1621237661512326  0.8273240092667802
  0.2008862643926035  0.9850734825559887  0.8249454914331553
  0.1714460839967681  0.2244623198100016  0.6851023268845713
  0.0088484958533490  0.1476538049372399  0.4941944289612632
  0.1667261026009605  0.0093795328921734  0.5181889573522808
  0.1613384155818158  0.1666467860277110  0.3473234021022291
  0.9748033012393973  0.1692030348109463  0.1468473240940447
  0.2098240866448067  0.9920207282939075  0.1727262661331471
