Cl O  Li
 1.0000000000000000
    11.7780000000000005    0.0000000000000000    0.0000000000000000
     0.0000000000000000   11.7780000000000005    0.0000000000000000
     0.0000000000000000    0.0000000000000000   11.7780000000000005
 Cl  O   Li 
  27  27  80
Direct
  0.6822167514817679  0.6636041125473556  0.6493756765570572
  0.6574217860509445  0.6660684189646309  0.3668568262392640
  0.6642003392070206  0.6931542513165719  0.9947609820557679
  0.6418179803249865  0.3081774963612406  0.6743888178620152
  0.6507059852802660  0.3413643382913067  0.3265362931371802
  0.6587319748872298  0.3597043909330667  0.0010505454722309
  0.6651769282654496  0.0117732523983232  0.6763064497889510
  0.6886704497085333  0.9833929977469280  0.3057566504209099
  0.6482444723562765  0.0111867883410331  0.9656387063830100
  0.3399055660281298  0.6600492101572775  0.6475058174138436
  0.3290759212978238  0.6518093361296320  0.3267036193364375
  0.3325584965030549  0.6545589432307124  0.0041943988626643
  0.3394589107430325  0.3108859298004180  0.6748540761929772
  0.3744800251409803  0.3036881907098847  0.3392144409569597
  0.3231955774465441  0.3247945304416177  0.0133021605208193
  0.3117661211253602  0.0007576290022286  0.6496203703746987
  0.3421748137403426  0.0221757014088506  0.3485494048379109
  0.3336011172650861  0.9900828473698388  0.0127477431958301
  0.0182025663145223  0.6512967098690473  0.6694218653442574
  0.9791863681114813  0.6447396523907202  0.3341839668310154
  0.9935231595279259  0.6757686422140069  0.0074123329622627
  0.9904543142155787  0.3098938348299843  0.6491438975851849
  0.9799012114036723  0.3393952089229349  0.3337213805371090
  0.9999988104937896  0.3467450516985904  0.0024556346397398
  0.9929229804054359  0.9968984174748698  0.6910586044315363
  0.9820615014912312  0.0122509486063184  0.3290859225558913
  0.0147726929916728  0.0233491204090263  0.0032957239756535
  0.8470605473436402  0.8424683297526657  0.8328516272933636
  0.8402876621449548  0.8271225780296274  0.5042496518370001
  0.8306786930095701  0.8351259767778481  0.1637622834941281
  0.8428824530384474  0.5260680495692729  0.8304833927538620
  0.8439321587472171  0.5017107719052464  0.4873469527041284
  0.8184776859885683  0.5120396930854882  0.1770784105250007
  0.8225166724252279  0.1859790272960944  0.8451749812231862
  0.8340548523147896  0.1726555622846713  0.5026986557824271
  0.8392356892532287  0.1972107528751604  0.1627715245422223
  0.4741253881076956  0.8312371912120438  0.7868627926745297
  0.4996673498372119  0.8310375171702491  0.4925147128551591
  0.4904881738136868  0.8466320922227418  0.1888640777254892
  0.5128208570977318  0.5119290869455484  0.8323247501684822
  0.5023241643787233  0.5072477589948754  0.5067271969833237
  0.5090804505593358  0.5057270460269330  0.1669447099914608
  0.4998833394992100  0.1595309008787293  0.8411904071774778
  0.5212281382954546  0.1307196512048668  0.4971006166946175
  0.5240332508935543  0.1565452537163811  0.1712319124764259
  0.1740568615635796  0.8328999269980346  0.8267261847703433
  0.1698509537817620  0.8376247362789768  0.4859355503430080
  0.1382215147223909  0.8171417908894082  0.1731577022134634
  0.1714555930044977  0.5005301363807498  0.8377457465586500
  0.1780511116222621  0.4785592307198755  0.4849271802377809
  0.1655508566937328  0.4842841510824183  0.1865284541836894
  0.1773668069808520  0.1668912496182627  0.8371265626991188
  0.1647034059716410  0.1657746114055194  0.4927821594731833
  0.1735385471028991  0.1777409751118960  0.1877494941473001
  0.6207748788035705  0.8562825184178992  0.8383561855696354
  0.8299329517585849  0.6774117425761800  0.8452249402190447
  0.8354473884748806  0.8402186364934510  0.6765908193083277
  0.6929973683806440  0.8460860250135517  0.5086067321395115
  0.8312717232942838  0.6766964868388753  0.4981298367859607
  0.0208315380376083  0.8428732648228260  0.5094045376276718
  0.8546065419304261  0.8595081529689839  0.3309954371581353
  0.7921020891830999  0.6920850316402137  0.2085409586032712
  0.8246160838427673  0.8292945393017688  0.9973431538367594
  0.6566000941709231  0.5317919982819773  0.8451871268461663
  0.8458529485361277  0.3693583798442981  0.8530473691848603
  0.8430231803233780  0.5074975134887585  0.6610793608024292
  0.6831623287161873  0.4917295394255180  0.4702091143103598
  0.8588474695918367  0.3470169517117074  0.4907516947087613
  0.8406280634716802  0.4898271300127175  0.3322242503204533
  0.6638403834272971  0.5072510383130800  0.1435671691264855
  0.8383276824792282  0.3594663367226546  0.1550795598099192
  0.8323381089919464  0.5522532030064113  0.9988561894425508
  0.6656485023203612  0.1977662126994554  0.8719187523465944
  0.8199997754604484  0.0028104968268613  0.8191334700204935
  0.8034452913384192  0.2032612973898027  0.6529489593232455
  0.6682256010897126  0.1738791325864029  0.4881034225887461
  0.0030461355119447  0.1644993311139496  0.4859038097816196
  0.8300223435437193  0.1868553744795266  0.3202787872069551
  0.6687914656643608  0.1896320460771478  0.1668015130965241
  0.8174681418064529  0.9943171253026677  0.1606167493265979
  0.9961587575739659  0.1738856709801072  0.8326407592786348
  0.3259871679177260  0.8178094762700405  0.8396114761900503
  0.4816742571585867  0.6590756979900035  0.7999016857395265
  0.4586729168440710  0.8384159021599080  0.6385283397026099
  0.3427246460926568  0.8267623388520343  0.4540688769027760
  0.5160477062111147  0.6728637330804198  0.5180102378194811
  0.5285510582735038  0.8579038781149377  0.3420433589761007
  0.3269197898209665  0.8358569003687972  0.1897968818130745
  0.4512451801397025  0.6562663344238606  0.1666753200737597
  0.5967729010971252  0.8461448098287757  0.1055810652466085
  0.3472752466546530  0.4886047945159889  0.8096678192362754
  0.5325481423108817  0.3513611576538597  0.8289710197803661
  0.5347411155107790  0.5016948206537324  0.6541770032627747
  0.3331474984894802  0.5032984477412198  0.5139915750586085
  0.5189898619218412  0.3536406886601958  0.5252925914167764
  0.4943375265902153  0.4860604484432742  0.3429805557306638
  0.3240099414673673  0.4828835988111601  0.1757333030226472
  0.3422645698941664  0.1590197624569596  0.1885917526155678
  0.5072426963461999  0.5060633988126649  0.0073928392373795
  0.3371612827584558  0.1750850107639932  0.8320977889603918
  0.4753484118563930  0.9834412474993860  0.8543265461971361
  0.4987846869298300  0.1264266795489860  0.6582029533974356
  0.4817856325213153  0.9937233194693198  0.5047723184792486
  0.5052890728898328  0.1543738794826838  0.3441859683260399
  0.5197131337703129  0.3379388475140827  0.1496772271937309
  0.1889316667555602  0.3288451159482234  0.1860478518823624
  0.4770914302102832  0.0111024180118996  0.1626802501855260
  0.4864436813612762  0.1783029935726003  0.0008907571502356
  0.0088896562280480  0.8603387516391906  0.8369843779394306
  0.1905433504396244  0.6436883677509629  0.8031471581414789
  0.1780633989441771  0.8050991627920685  0.6550585325786785
  0.8546357422752535  0.9993487264513321  0.5273871040997140
  0.1604135618136776  0.6518349633941204  0.5163687568737054
  0.1512699724654846  0.8032735137165027  0.3352731458144709
  0.9902782672059877  0.8024472874705688  0.1430905445166846
  0.1418327728030974  0.6715033018504061  0.1653718923009332
  0.1492931002624628  0.7847951629144081  0.9863340913701930
  0.0253216055636509  0.5096348192499963  0.8484362429350127
  0.1722119616755904  0.3339174519880395  0.8398363321568240
  0.1590512378907497  0.3358256103290506  0.5487617001576701
  0.9983894014255499  0.4810158449092630  0.4974147025048858
  0.3468958578781610  0.1955244140951778  0.5007907808392854
  0.1615491168342126  0.5159429319426391  0.3235322352346645
  0.9761677658254467  0.5104370376478393  0.1469018410078751
  0.1673709086613750  0.1939212323471998  0.0082704705674080
  0.1843147915775021  0.5169964432799425  0.9950156216836856
  0.1343161605025711  0.1352524887932543  0.6499793140191739
  0.1891747411568042  0.9785556757162720  0.8733554985743337
  0.2024394618384130  0.9934923249022649  0.4585145392822229
  0.1735181222135873  0.1959970812561578  0.3377637677482032
  0.1994583996487398  0.0085368987023739  0.4555035178891986
  0.1511539412806136  0.9804860795248729  0.1457001935556229
  0.8319823740591210  0.1456510043931728  0.9978100334818724
  0.0040294678480858  0.1848887147211608  0.1845807618398777
