Cl O  Li
 1.0000000000000000
    11.7780000000000005    0.0000000000000000    0.0000000000000000
     0.0000000000000000   11.7780000000000005    0.0000000000000000
     0.0000000000000000    0.0000000000000000   11.7780000000000005
 Cl  O   Li 
  27  27  80
Direct
  0.6752677818690025  0.6889437069756894  0.6721210043624353
  0.6819933801088849  0.6721884152203876  0.3330095427975241
  0.6462811595206581  0.6735577127551766  0.9944215259538337
  0.6598712209564969  0.3412391361814583  0.6750932002473330
  0.6557853524151338  0.3482981317721476  0.3327257805592965
  0.6625073069681221  0.3176877610875788  0.0231541618177877
  0.6972967031223125  0.9840586363695620  0.6804194202928453
  0.6824423633050536  0.0013446194181704  0.3394260349325602
  0.6829493216082475  0.0056209468261843  0.0096669851951129
  0.3336443220739139  0.6505530931224565  0.6622770983932034
  0.3396042602411238  0.6549957190961583  0.3503573385272107
  0.3288073479647495  0.6851107103047742  0.9626427880891476
  0.3322813402630745  0.3067754249074825  0.6603159041651786
  0.3386102826991283  0.3200721897910541  0.3226032135134885
  0.3509567335553181  0.3456058924969439  0.9877291118332375
  0.3489867539933376  0.9909411933808362  0.6552503291888214
  0.3400372921857784  0.9847819651506414  0.3405610029146511
  0.3460494970172132  0.0225339507610533  0.9974411133321280
  0.9985090833318894  0.6493520124659432  0.6697048350975718
  0.0002134075970888  0.6612693382195373  0.3253558165349039
  0.0424518269250895  0.6596229180537495  0.9936551909134675
  0.9905940425675345  0.3373563626990292  0.6539853625554325
  0.9660895169372397  0.3608617261245187  0.3195536702529119
  0.9745880193545581  0.3401657465078771  0.9977324332158842
  0.9959399625604869  0.9870501779545630  0.6860467303320373
  0.9798588743368167  0.9912586793329544  0.3410507144332133
  0.9893532052384661  0.0027627958107327  0.9996957386947788
  0.8360307293803434  0.8339928903876916  0.8578670530045632
  0.8458963760147102  0.8191838132587391  0.5031998014098761
  0.8252451732614555  0.8229451507540710  0.1726797486870675
  0.8363729120651061  0.5248884454431024  0.8542314631924866
  0.8338341529789621  0.5053249237131356  0.5178586776679733
  0.8111403803237154  0.5193479361228092  0.1655869781431407
  0.8351079049463069  0.1822762712093096  0.8357867152806372
  0.8242995960270361  0.1746341035312254  0.5064663667104040
  0.8067154869595645  0.1793273341924191  0.1668649507144711
  0.5035138552687684  0.8408853694873224  0.8305428020735207
  0.5173364648992682  0.8228666090587988  0.5021429297835478
  0.4827666616085601  0.8527888897161289  0.1580370159861813
  0.5191909395867067  0.4936160978207020  0.8303896052823303
  0.5036654731289713  0.4946044276480118  0.5050092563214680
  0.4942933031562906  0.5023292867758863  0.1684080318714020
  0.5088195087260341  0.1606008280701338  0.8243143646676281
  0.5133246441726742  0.1447895244969115  0.4900317194017797
  0.4928218204468279  0.1763383773478088  0.1607573521358792
  0.1693947002095860  0.8444508385693933  0.8146392423724110
  0.1778544808626406  0.8172163842775845  0.5073632399966728
  0.1695003165227514  0.8274487477551337  0.1681544110208703
  0.1682004717087042  0.4859481206937848  0.8390273294333975
  0.1756640177581593  0.4843310524501994  0.5062960445908115
  0.1531378951854495  0.4986792841578730  0.1779211315560631
  0.1630183189944420  0.1744723238331290  0.8500659193643730
  0.1353698609006476  0.1598693781688555  0.4416973220730073
  0.1565141961896037  0.1728346282731822  0.1586644791120440
  0.6700719248434778  0.8384061239537814  0.8302926022401284
  0.8620592042810373  0.6944664836864317  0.8303027235926117
  0.8535010744459003  0.8442151325127575  0.6529199889930181
  0.6747964102411405  0.8216817630516694  0.4760229983418132
  0.8584807798677873  0.6580667398667049  0.5075623472427284
  0.8535510334417591  0.8146662083058391  0.3369051703976074
  0.6751427224377162  0.8289020930009459  0.1685783337482896
  0.7848953894506944  0.6687011639503091  0.1274830920844130
  0.8156496452821688  0.8115591150350413  0.0175843461213784
  0.6680873705339210  0.5382016271604021  0.8481045631947085
  0.8146928131037877  0.3471757547525463  0.8258935385675152
  0.8236207366732621  0.5194306073298943  0.6853954010570183
  0.6657031442574954  0.5097535822204105  0.4883502793563992
  0.7930085846306562  0.3546375396866693  0.5026491188639531
  0.8314690763014354  0.5016025736675702  0.3391879807221481
  0.6384936289782059  0.5014335875665056  0.1063787563804717
  0.7992341070870336  0.3565144432912115  0.1863562262304104
  0.8878135929564777  0.5163879263463016  0.0200877943390453
  0.6690008023528529  0.1750425810747550  0.8390072486700703
  0.8152068158683102  0.0167611121203463  0.8371987654083165
  0.8768517633627370  0.1982379679590844  0.6591258355401673
  0.6670127662980418  0.1431593693445648  0.5322421316822895
  0.8543692435765259  0.9913939676560942  0.4924200751900186
  0.7567062891926409  0.1793301681711145  0.3396045755903694
  0.6526720243912060  0.1592780381500064  0.1798623259915804
  0.8100230639803557  0.0168911095064755  0.1942521362152562
  0.8140631840084936  0.1886518325949024  0.0147271389220459
  0.3579477541427282  0.8731532128545908  0.8221178692370666
  0.4959129624661118  0.6822787558798881  0.8373132581476102
  0.4910837817983596  0.8293875940368747  0.6684441194322259
  0.3351297115216889  0.8263411479101582  0.5047299474783330
  0.4893873216658936  0.6631947433451804  0.4773573164824192
  0.4865658934475903  0.8159739680175285  0.3265123834831946
  0.3383652042700925  0.8918750429120286  0.1737661746626474
  0.5205065129825135  0.6653120088285007  0.1515945727033775
  0.5001206111205566  0.8255616418272882  0.0000505964757731
  0.3505441062572703  0.4972987316791221  0.8308843369917241
  0.5279353832783601  0.3351779237612984  0.8315095936627455
  0.5251449668840663  0.4984708247821226  0.6582094078009004
  0.3437603304833127  0.4999864770738232  0.5257600531831602
  0.5088347717255792  0.3108830341139803  0.5015190091310543
  0.4708437893538051  0.5018451217584851  0.3247394059259531
  0.3109930388563930  0.5352063141064322  0.1831456522518211
  0.3219768520277279  0.1567145121143355  0.1560704776840452
  0.4820308392830089  0.5053528586459902  0.9832884962131726
  0.3353830084889412  0.1649895173564511  0.8254043128738725
  0.5113952714768576  0.0084715314980699  0.8311044156801257
  0.4571103690813900  0.1569454611353042  0.6254638770818204
  0.5259413553828789  0.9867866938460359  0.5077630334197715
  0.5179701425355557  0.1647912096972417  0.3310913643175544
  0.4924416624475474  0.3437843729331916  0.1801216552849129
  0.1657229974118480  0.3338045776855160  0.1767383907902500
  0.4897263060032712  0.0188856257572141  0.1617073220372765
  0.4932049338810338  0.1806997693464781  0.9888282312500010
  0.9914131073240017  0.8778465244866042  0.8409224514724100
  0.1624900350015652  0.6730946406363510  0.8287369098780027
  0.1649610417541844  0.8497981515134815  0.6617886014369392
  0.0034211934593611  0.7913030498827431  0.4935881602374355
  0.1634242155930882  0.6697418009272537  0.5085009609866392
  0.1810337191339409  0.8297475903020082  0.3366885734544602
  0.0003581755947794  0.8032826826822255  0.1404606699960646
  0.1416795727669826  0.6772038287738363  0.1504266799616577
  0.1889178073790860  0.8054607167658570  0.0122787837562848
  0.9999428715152920  0.5096818420740072  0.8361199102043944
  0.1989860834901725  0.3231189395583452  0.8225761640775200
  0.1616160865786716  0.4697794625284272  0.6717813317730889
  0.0038814382416288  0.4774377636423702  0.5116459486011353
  0.1891086556015150  0.3086082399006064  0.4950744606069339
  0.1992867686297526  0.4871258412687661  0.3435209317203388
  0.0056709907787311  0.4972992175040414  0.1863354774578192
  0.1188012777346090  0.1751274587366816  0.9911732828316391
  0.1311567163518043  0.4719422740979236  0.9879924921979015
  0.0118467370561789  0.1686341252935908  0.7997261177399279
  0.1676718435898429  0.0118329724590248  0.8078363979703744
  0.1715756998494951  0.9990087569175644  0.5303327182935703
  0.9794652334308590  0.1794254910688042  0.4855230617244754
  0.1628194242967886  0.0151493284879264  0.5263014240847982
  0.1480102257116061  0.1255404630672550  0.3153283092316209
  0.9621893549712439  0.1774299854558603  0.1526377602611479
  0.1636137784037519  0.0233775730815682  0.1496345727949458
