Cl O  Li
 1.0000000000000000
    11.7780000000000005    0.0000000000000000    0.0000000000000000
     0.0000000000000000   11.7780000000000005    0.0000000000000000
     0.0000000000000000    0.0000000000000000   11.7780000000000005
 Cl  O   Li 
  27  27  80
Direct
  0.6416058020221230  0.6838320823971032  0.6654070889953060
  0.6746391435204243  0.6527026077863600  0.3280195973989112
  0.6690956382797959  0.6558107941632262  0.9861505113565838
  0.6696981016650245  0.3321755890402757  0.6819688200057135
  0.6571019975284763  0.3258920509914630  0.3466416511635666
  0.6564423282590112  0.3393533890664164  0.0202541023788582
  0.6713061416621945  0.9988900435955180  0.6828370701071589
  0.6635126597644819  0.9899132441730468  0.3691826723671322
  0.6816506497252609  0.9935599409043052  0.9958604969667226
  0.3409897305513543  0.6655135275080182  0.6712659755793206
  0.3547768749627519  0.6682852801283324  0.3275868286094212
  0.3132082171578117  0.6663642069415523  0.0129301095374456
  0.3209439871036633  0.3350884940423249  0.6387821830354641
  0.3291025461854561  0.3212486781126030  0.3131792250480795
  0.3390580299444664  0.3459856684364009  0.9913841279853020
  0.3452540992651166  0.0127188716900959  0.6478789712497732
  0.3372496074108278  0.0000016781832366  0.3115534321986532
  0.3622823031687840  0.9916591698854380  0.0103769680094227
  0.0085485679518629  0.6522048801566310  0.6544025068086751
  0.9942488833113767  0.6379067693864559  0.3139392576487712
  0.9790685031013974  0.6535702506066565  0.9757190267161194
  0.0067222388479273  0.3603977861209503  0.6728011013531995
  0.0091211006000440  0.3421775702925951  0.3289671381757124
  0.9710421921414921  0.3297371527999484  0.0022495368309006
  0.9795446621289842  0.9912756180701527  0.6701929907598387
  0.0196228065514545  0.9772882334538059  0.3611575329537769
  0.0007240477011270  0.0084095401330946  0.0118987007036279
  0.8360716387412546  0.8220728344204979  0.8264520173868378
  0.8581326244392321  0.8047177918024331  0.4937202872047424
  0.8624474784591822  0.8602833691703442  0.1611081914090024
  0.8479470620955668  0.5067401544970658  0.8228104357340906
  0.8376025540325002  0.4992081678621170  0.4930884314119018
  0.8184879345278824  0.4909331524986489  0.1746750344622439
  0.8353959372494553  0.1608496640725116  0.8279300587327098
  0.8403630921942626  0.1669899141342152  0.5104342028710916
  0.8232410026249584  0.1640559972044102  0.1788950918948335
  0.5046532147720096  0.8391547624631475  0.8321517963098116
  0.4954852936924463  0.8469907945267010  0.5123653569249454
  0.5184174849267945  0.8591224905258957  0.1613996155110601
  0.4940443369820740  0.4997858136910559  0.8321756017308528
  0.4926766993490921  0.5017876147852446  0.5083632526967358
  0.4976840967913740  0.5114482837891151  0.1828255976755748
  0.4912771996984923  0.1683764685749887  0.8338861912713859
  0.4672208096010955  0.1641459659066362  0.5087793617400378
  0.5024062340352605  0.1733964468584076  0.1679811464196923
  0.1826678103465763  0.8525319516135530  0.8415664354775129
  0.1683578373512905  0.8358654848476464  0.4903165573353579
  0.1731287999995575  0.8251356366528280  0.1552583027073456
  0.1621249971570677  0.5194097396526440  0.8208724801313682
  0.1657934206366010  0.4969328878238239  0.4829510062206481
  0.1551809902519435  0.4985550977144710  0.1605537740840131
  0.1472318115889770  0.1768416540302695  0.8308035511881880
  0.1599828129039328  0.1600086505305993  0.5081345506160183
  0.1654159650384334  0.1626960922847258  0.1879140469085446
  0.6715468274242525  0.8498403196194985  0.8255783422404612
  0.8151043259072350  0.6725558026244047  0.8091253955265466
  0.8443194883946568  0.7994201949417442  0.6462221058482227
  0.6977312116386021  0.8224437617463136  0.4751494677263585
  0.8872704597936801  0.6594717278419215  0.4709287017990951
  0.8641036556087639  0.8393479588393529  0.3089660906205886
  0.6741077320296301  0.8611416598609460  0.1642083616747015
  0.8286852376404287  0.6746049716482161  0.1730333915748285
  0.8733856645735216  0.8351743179292527  0.0028815137636787
  0.6776788690690919  0.5113216859122514  0.8394268625333189
  0.8320397777367432  0.3507739183547097  0.8309843590289536
  0.8486523179366177  0.5122247939516500  0.6494589143724493
  0.6701233199255617  0.4917580022406450  0.5007940599700577
  0.8693735604490582  0.3377140336046623  0.4885967371213599
  0.8474123308011579  0.4704379805152801  0.3154082909909328
  0.6545871248341937  0.4885245944908529  0.1798143940982058
  0.8429637129867856  0.3160598857911118  0.1910256340598451
  0.8361973054536896  0.4783715014459546  0.0245598231433610
  0.6539032857749977  0.1825460078045658  0.8131490784782511
  0.8361583584893333  0.0032128076105800  0.8500636752561089
  0.8328017131517018  0.1753079857311483  0.6700765547208684
  0.6606559282687161  0.1652483330123777  0.5016754273443217
  0.8180899629482306  0.0041952632579421  0.5057631986999518
  0.8407592014450574  0.1514943461517160  0.3413749851560672
  0.6771796839646053  0.1326513736264029  0.1558502702500487
  0.8740216093927655  0.0073657351728227  0.1799828134035313
  0.8279343142569719  0.1761980979539580  0.0187615824382586
  0.3531481064356956  0.8842324324460058  0.8179504861547887
  0.5117762987666246  0.6520057324251655  0.8294858320656551
  0.5352842330156449  0.8629289287678942  0.6917414311680515
  0.3531870129146422  0.8357364173607768  0.5272703844754417
  0.4946761522895045  0.6916843086246300  0.4984364730933687
  0.4872674032423950  0.8398532167553295  0.3371446039439444
  0.3231624458691139  0.8532367216296848  0.1642617720517570
  0.5007410286392635  0.6919154803153535  0.1580138915277436
  0.5505575968257210  0.8632098975128363  0.9943840209512707
  0.3296079862857778  0.5186700712131491  0.8483774579323562
  0.4874974008562304  0.3354046648512047  0.8280181549847261
  0.4758279672676625  0.5008965713980061  0.6757741879171156
  0.3282607128139927  0.5014840551815591  0.4972646633882378
  0.5002730577858359  0.3526703359268401  0.4992261814995421
  0.5318651591758954  0.5209839743325193  0.3513681608317261
  0.3279792177587213  0.4869979706530601  0.1772261011130077
  0.4810988842432050  0.3298046824637184  0.1783995099918309
  0.5011134944106567  0.4768654846818182  0.0162172591385869
  0.3031289897433379  0.1906760449150602  0.8574929908914649
  0.5241283568520902  0.0155657032379637  0.8657731479019947
  0.4681537553876154  0.1753611835598015  0.6612753099990776
  0.3080006193634060  0.1400137466364330  0.4985272818678508
  0.5202271017800264  0.9976457782908803  0.5152121694952774
  0.4897112240422435  0.1455152482642548  0.3432438321640324
  0.3383259120339242  0.1793136526754321  0.1688024233242617
  0.5001740709585472  0.9939356967478400  0.1362375891110696
  0.4829317397217388  0.2118287404411677  0.0141428702347247
  0.0024599442206934  0.8248910238060063  0.8228979651903682
  0.2015122909534094  0.6830668271785298  0.8230943194285483
  0.1714600723728962  0.8051964912894931  0.6568068138484278
  0.0105192212163680  0.8407081066714968  0.5106040796511750
  0.2121178084543207  0.6335669358685763  0.4999178747282652
  0.1632214331502538  0.8211946249082086  0.3321580767304836
  0.0241219754608056  0.8162762953677817  0.1491687505002319
  0.2053881414307397  0.6611757182606354  0.1609717454561722
  0.2033623122457553  0.8048517985093149  0.9868357307152247
  0.0031200396939858  0.4876433080874088  0.8151222563876164
  0.1451361754359138  0.3339947604502518  0.8706283202029247
  0.1649326704573458  0.5146820963930064  0.6670882456428170
  0.0040056877677659  0.5170811808148779  0.4922478328454414
  0.1850418545424034  0.3367286592122777  0.4744891506903343
  0.1586595270375337  0.5186790994595645  0.3266008874212975
  0.9963396893652594  0.5343988149141635  0.1579226576564573
  0.1655943437546028  0.3374088950699894  0.1500105939930478
  0.1405731053676580  0.5178148574137026  0.9891320960610790
  0.9825314150490911  0.1593123723292012  0.8287568517743827
  0.1565411279627351  0.0144124889876832  0.8689510906401773
  0.1782748599708634  0.1903979303915183  0.6775932783562719
  0.9956382160634069  0.1502644095192724  0.4990759806286869
  0.1732647095207061  0.9979319968548389  0.4956449635930067
  0.1634244269956631  0.1735516476773897  0.3441164951751606
  0.9919972252446111  0.2083799705532315  0.1822323244784014
  0.1730229711379899  0.9894308883474020  0.1833049246864889
