Cl O  Li
 1.0000000000000000
    11.7780000000000005    0.0000000000000000    0.0000000000000000
     0.0000000000000000   11.7780000000000005    0.0000000000000000
     0.0000000000000000    0.0000000000000000   11.7780000000000005
 Cl  O   Li 
  27  27  80
Direct
  0.6938540387030426  0.6592154696608208  0.6638589889068549
  0.6585250125198416  0.6572628583397021  0.3376677981558338
  0.6776190249508033  0.6628414239453333  0.0124832720621463
  0.6796192066285944  0.3167433344599899  0.6647494654983541
  0.6680157237728092  0.3308430262360783  0.3533812383718931
  0.6615314185761336  0.3763238296883549  0.0296991359622102
  0.6572520702606955  0.9809997832980243  0.6438545810627068
  0.6677444715262512  0.0049030971115835  0.3386180716978056
  0.6558158098578755  0.9915246443735790  0.9987908527560574
  0.3367141811820438  0.6880620124907932  0.6608028262817542
  0.3164114161093867  0.6732390893516432  0.3418086458838875
  0.3461268770500685  0.6867966005178950  0.9879445248739359
  0.3318176327921615  0.3366216909803086  0.6661099776991876
  0.3177267263500287  0.3196613203809858  0.3356898024826864
  0.3651510116634838  0.3306670361590950  0.9829010878257984
  0.3365559642000216  0.0070209752530215  0.6572734296999343
  0.3608062794110025  0.0163248684796020  0.3162882628778658
  0.3461208042385783  0.9864736574290732  0.9917790517668296
  0.9997890791457664  0.6264456881811901  0.6793149419157337
  0.9993102155030209  0.6457311156303199  0.3388536562982117
  0.9931519143254550  0.6687482452547098  0.9811575507525933
  0.9928044742306619  0.3598079281619930  0.6776959303724714
  0.0094902613932904  0.3196883241494119  0.3131546516635613
  0.0085855712599816  0.3601080869912440  0.9986374891206971
  0.9901666125542603  0.9965826356102954  0.7038793834223929
  0.0227270009633739  0.9921670428202001  0.3393010200779829
  0.9662186094902714  0.9913173179567223  0.9989208028564930
  0.8442876196946325  0.8304093615854375  0.8122275710793492
  0.8260682945452961  0.8362329448919896  0.4963892688712508
  0.8106349323951605  0.8221914711353862  0.1715245420913085
  0.8408676551758646  0.4991434461554142  0.8517967152157623
  0.8247056366177360  0.5052383221939343  0.4977905093944779
  0.8491321038473399  0.4994568437137136  0.1842998346522247
  0.8257095938132805  0.1624413421851451  0.8324935956424913
  0.8409317030943800  0.1573969410781835  0.5101391667055091
  0.8289716652333057  0.1866217896999322  0.1570129922399611
  0.5300252120682167  0.8143460464567281  0.8196990725118564
  0.4862431156886576  0.8489675496159219  0.4894155760392926
  0.4887934131166325  0.8396040840063771  0.1643760737446650
  0.5043462072260736  0.5071408530629646  0.8242052605791548
  0.4986252949191143  0.5069991541281954  0.4850176054727479
  0.4877746787464623  0.5032897998992187  0.1758604890098343
  0.5128381839013783  0.1348659804989865  0.8308992801992887
  0.4972905719244088  0.1734462381337031  0.4947134158124412
  0.5055879757195705  0.1762542656813182  0.1498631069039699
  0.1550311065819615  0.8467798800047261  0.8617399318955625
  0.1605674054196216  0.8381804550514566  0.4859413205858029
  0.1510731618146373  0.8311539692449442  0.1534185760897872
  0.1866490983916736  0.5085944412212363  0.8460056821787970
  0.1696121698821656  0.4928941992488155  0.5162278079908994
  0.1761991258357290  0.5100861261502559  0.1729305598929078
  0.1497673352812723  0.1599122388692706  0.8458207448262185
  0.1459489538433433  0.1585554715688560  0.4998974510982652
  0.1426663765631863  0.1636756816059190  0.1556774089302946
  0.6883656745907446  0.7916238530437079  0.8212563033195593
  0.8349393765992229  0.6528993408570112  0.8229106991111039
  0.8582877173622834  0.8431065577905910  0.6583808271178602
  0.6643168552650055  0.8500391174460561  0.4935792575385489
  0.8158742302655443  0.6868092319657945  0.4988411057822662
  0.8153623327423385  0.8365618483622937  0.3310257213166452
  0.6424149367426586  0.7932486135151806  0.1893483855137044
  0.8605678556497683  0.6649591752535730  0.1711448699169471
  0.7937565649936590  0.8582140933615774  0.9867033611312498
  0.6699669990754001  0.4728908845107354  0.8530456091414074
  0.8496193052704860  0.3379291268087184  0.8251059799793673
  0.8362986337523484  0.4857503057534946  0.6639972060963698
  0.6548057798508411  0.4989228816420934  0.5191118671383705
  0.7893112669829015  0.3260574078694152  0.5024541047355998
  0.8358308653259706  0.4957987844991233  0.3308715123902065
  0.6447758029375522  0.5326552442283158  0.1762656669924542
  0.8257265976854528  0.3378686011208671  0.1713387747878262
  0.8218953014017548  0.5015954045226593  0.0265037161786269
  0.8377050968934570  0.1500022708323786  0.6611722556474022
  0.8434081956200453  0.0019460225272962  0.8278102434213215
  0.9996278704285885  0.1906955126183152  0.4928221803727825
  0.6849232811548729  0.1385592316561619  0.5109308588967693
  0.8408006923078335  0.0076996372404221  0.4873668928404004
  0.8085228085589015  0.1868668276435579  0.3175533712101897
  0.6725596037567561  0.1780547935600197  0.1367493461946526
  0.8198003433793080  0.9651981051310137  0.1712461239271922
  0.8078266214496757  0.1452409437116759  0.9819220645820971
  0.3413716227408558  0.8443752085962839  0.8241712528348102
  0.5405966408539634  0.6523878886733145  0.7814657849616270
  0.5422508342184584  0.8372181978281444  0.6391935767878205
  0.3320818608200959  0.8460083900330231  0.5295272246688217
  0.4781200420686719  0.6615536235407414  0.4625093774512288
  0.4578194024800362  0.8239310482294322  0.3206298777537824
  0.3336414397815750  0.8344017088298531  0.1943060668725873
  0.4617671752881145  0.6605002336596677  0.1538415980168355
  0.5011007753095311  0.8183874620179837  0.9775102745739053
  0.3504055775989475  0.4819674300200777  0.8246841220078548
  0.6694259925424515  0.1806770942895624  0.8065903826001334
  0.4767127287339547  0.5046503525854621  0.6689201914589391
  0.3481830500497985  0.5215427684242105  0.5065451958948445
  0.4950772750487247  0.1959735955114160  0.6771364220071832
  0.5114559310354102  0.5350306851707857  0.3385143075921447
  0.3333466655118453  0.4886344053863758  0.1851161419727248
  0.5191737052165463  0.3406848876921087  0.1553293963465016
  0.4992353695614103  0.5055200601616652  0.9989152957337188
  0.1473417734013041  0.1855028336974702  0.0076830331589082
  0.5404051853503854  0.9827475877864701  0.8325884934433766
  0.3673303817656431  0.1567508141783412  0.8537962086415847
  0.4615571369813766  0.3513139272161917  0.4856497446634579
  0.5019687824985170  0.0198172550708968  0.5114781001828477
  0.4884841450701464  0.1986543571729034  0.3108779343932155
  0.3233413442132062  0.1685013096789495  0.1401495234693155
  0.5246430816715854  0.0132967888121357  0.1776848020668721
  0.5176914129026312  0.1623075682693705  0.9816152927141673
  0.0012699774015229  0.8473248136224383  0.8386805759886112
  0.1716966219407346  0.6840839161106744  0.8911070766118767
  0.1759736423451013  0.8089248881249206  0.7034508858436510
  0.9992923623861166  0.8220769783960927  0.4817508782305801
  0.1255169492208241  0.6692140703814109  0.5332295344364697
  0.1672961817641839  0.8424291559115744  0.3275991171906479
  0.9897030027385842  0.8312265190995460  0.1537200911802710
  0.1628575739674178  0.6631870883753501  0.1479981464953583
  0.1898597128556728  0.8307423135967351  0.0128208609180503
  0.9994085944165759  0.4978379131412711  0.8510496784316594
  0.1545231057794616  0.3435170850294544  0.8264730913020202
  0.1829748854985197  0.5011644778193215  0.6793899208949316
  0.9865140618857593  0.4713719529008302  0.5193297191292258
  0.3463915301748073  0.1284393265260570  0.4883243727853404
  0.1656632736039617  0.4987782677578090  0.3278190946655246
  0.0155899786012202  0.5136227291350440  0.1748973815929134
  0.1753372724290531  0.3431692343873012  0.1627443700253884
  0.1827011029138408  0.4807978065270833  0.0157479598517886
  0.9955016438696942  0.1980190803629234  0.8474662338275775
  0.1510317351189223  0.0217245581576231  0.8514187434286179
  0.1528045608558765  0.1486511512466499  0.6703948725157867
  0.1869746415729533  0.3491545569065398  0.4838008974480001
  0.1264747732917486  0.0126041884571963  0.5120823044407034
  0.1388269629547966  0.1783047909663624  0.3320718035812259
  0.9747780171461593  0.2180329415502913  0.1573756706635027
  0.1412654295591813  0.0133355320842735  0.1499035012217315
