Cl O  Li
 1.0000000000000000
    11.7780000000000005    0.0000000000000000    0.0000000000000000
     0.0000000000000000   11.7780000000000005    0.0000000000000000
     0.0000000000000000    0.0000000000000000   11.7780000000000005
 Cl  O   Li 
  27  27  80
Direct
  0.6595489034028099  0.6829464654861649  0.6564673152930428
  0.6926663330975442  0.6576152303153552  0.3423564445560100
  0.6597912895520850  0.6747645665655450  0.0049744219691711
  0.6586111803379177  0.3328733362691528  0.6501368546541165
  0.6282699971440004  0.3060440802026686  0.3227469516430633
  0.6685054501571078  0.3386867982232213  0.9982687882552087
  0.6663440960623690  0.9936864453248584  0.6609106700041235
  0.6614594503830074  0.9897771513685844  0.3403080447549873
  0.6803218457837361  0.9884046909111441  0.9968172918958322
  0.3386284272002816  0.6542651840995432  0.6672738023688667
  0.3425462408050086  0.6563715994930014  0.3198761312246405
  0.3245154157243249  0.6679907097170211  0.0134055063738891
  0.3466748214538522  0.3464222645284984  0.6742235683235538
  0.3353443317172521  0.3168804859964336  0.3479176824061896
  0.3391010538758515  0.3348555221822283  0.0078147919823550
  0.3385615048176607  0.9981895599802167  0.6738164875266670
  0.3367748027064516  0.0004366566380809  0.3618562827361504
  0.3122922226986792  0.9776111060293987  0.9883406702611217
  0.9787538308450008  0.6708891816704290  0.6496697744797075
  0.9974623326626793  0.6659422289451786  0.3622262788975377
  0.9982251359836135  0.6896827518742700  0.0094374883305058
  0.0098720796106706  0.3318621524279352  0.6570087266800908
  0.0015463255909103  0.3460294345959085  0.3372936428302334
  0.9942175817233836  0.3387694694303066  0.9867836355546232
  0.0231912088877235  0.9990233789801207  0.6688223288134336
  0.0383370335351551  0.0263661417067094  0.3303255167421412
  0.9845405977318942  0.0365380933616226  0.0119399332691078
  0.8613631254228393  0.8238358539982644  0.8358933485320074
  0.8378137341140466  0.8483734131927272  0.5100977812068618
  0.8249007506739447  0.8348979254670018  0.1723832484690196
  0.8368445134002255  0.4993552527877762  0.8292903401134053
  0.8280015282207929  0.5055457553645605  0.5140940150506310
  0.8233156659042070  0.4991291417732946  0.1802277217405442
  0.8165689342803389  0.1702427158267346  0.8138459659317675
  0.8206177181862028  0.1673130498649727  0.5012459702080633
  0.8185356345241149  0.1699050472651797  0.1640993870434808
  0.4969941526186082  0.8106219020207130  0.8256390419622741
  0.5035751774596162  0.7994050143443877  0.4688779254512080
  0.4917487414513241  0.8304699552116960  0.1610718982099658
  0.4917708869705582  0.4972928045495064  0.8454127639406183
  0.5165169460261811  0.4964636228686474  0.4918932332321510
  0.5000256191436493  0.4988764723298963  0.1689385676074868
  0.4963357383968510  0.1510805968149115  0.8427104437983408
  0.5058375831375502  0.1666745241008455  0.5223203264659485
  0.4836213358924756  0.1428962485269906  0.1516467834424440
  0.1692594960992617  0.8335735667372395  0.8254003399853028
  0.1739827466919214  0.8361309491119530  0.4995431943516475
  0.1622109862297453  0.8279179169110940  0.1465153589468292
  0.1535303171800905  0.5175013398305421  0.8344361976576614
  0.1582310477634745  0.5112998252222558  0.4955730331118757
  0.1602835062268431  0.5002473083102630  0.1614104979359492
  0.1951124060197764  0.1740115836083143  0.8304751051497149
  0.1868572689925859  0.1915205517549482  0.4990246572212123
  0.1700409454818085  0.1724929758816884  0.1669138214072180
  0.6686278780367483  0.8505201115690699  0.8398680441376917
  0.8264411395511151  0.6539038923012919  0.8580715799771542
  0.7975611152871271  0.8089867772842969  0.6507296420263708
  0.6551115000469896  0.8330466086415380  0.4860161282136661
  0.8315052165673046  0.6645360896873495  0.4923056985885589
  0.8056220842882739  0.8454697995922580  0.3482335495744949
  0.6469215850152028  0.8396554469591707  0.1588689554778724
  0.8107727191109023  0.6830650067664518  0.1736226890514453
  0.8211667003449084  0.8145510920256314  0.0008291146783256
  0.6432698820099723  0.4945133597013048  0.8436330253199177
  0.7867209848356480  0.3314243634476134  0.8052112377010354
  0.8221067715635766  0.5272245183073510  0.6682227803777204
  0.6748352225440651  0.5197282802893740  0.4998495879340283
  0.8269842918107900  0.3330776661330898  0.5341784625502188
  0.8608015927870540  0.4944028345321848  0.3422482270552563
  0.6537266561147856  0.4962470664109102  0.2203170224237897
  0.7910499277782553  0.3311567346452444  0.1780516107138845
  0.8053001443084785  0.4693158478395072  0.9952788222801264
  0.6553476514431348  0.1649102002999774  0.8265373322378906
  0.8639169450814784  0.9770050672764055  0.8171547575148568
  0.8095841484460587  0.1533440348707988  0.6618332920111104
  0.6568988094393476  0.1570376503966636  0.5285656867731933
  0.8111345777048929  0.9954005836646059  0.4952188667457728
  0.7780076339388240  0.2009333285937927  0.3341507402143489
  0.6587323936552603  0.1365695226671308  0.1414550875591735
  0.8209043548885357  0.0157462569459478  0.1493992460313082
  0.8142851523059598  0.1601409380389277  0.9694643339625160
  0.3306663438128987  0.8084099411635567  0.8205560177742355
  0.4912817017623251  0.6690901315091901  0.8217513090171281
  0.5049531793575411  0.6473465919105050  0.4708238161942778
  0.3418100541107680  0.8146233179969539  0.4521272085472288
  0.4633891166466284  0.8076734305860368  0.6236451456929575
  0.4793575744598622  0.8692784594662684  0.3388828368690793
  0.3201602787214903  0.8417031989936347  0.1622389407580769
  0.4778378736271681  0.6689070969708782  0.1794100379161064
  0.5000790193993523  0.7951645725078965  0.9744632168170209
  0.3373376308753546  0.4930033753669948  0.8577520691219548
  0.5161488526790609  0.3097029491254575  0.8468619796746172
  0.5109620238999514  0.5188719733838592  0.6581086747825887
  0.3441078845223944  0.5029293047767533  0.5301909330695854
  0.3447553271980595  0.1697273466796267  0.4791936079024016
  0.4669926824994474  0.4896042608343428  0.3095488699462060
  0.3057456509415250  0.4948095104749723  0.1678491052261618
  0.5332587561399750  0.3108575322886615  0.1659427990926551
  0.4817760513930920  0.5013996040478055  0.0035027169062461
  0.1687353517395506  0.1572503404977521  0.0035552528085686
  0.4922208823019749  0.9827391816225105  0.8218844250449910
  0.5233092237362250  0.1527668647454267  0.6662615456642859
  0.1898332097779025  0.1397115852107592  0.6785778551327797
  0.5110282175451937  0.1327278722398422  0.3701084238430058
  0.4917286606879969  0.3377237312917103  0.5059636540568571
  0.3121207467449035  0.1727770620031956  0.2008054029893585
  0.4897394100708878  0.9937189222146399  0.1390953448344056
  0.4362608555850764  0.1728378103608016  0.9916447819838565
  0.9990464410381944  0.8389328633626681  0.7780839078039121
  0.1384015065261838  0.6732329630223304  0.8186860776602021
  0.1816251370397602  0.8386353765704728  0.6374758524054442
  0.0026751578193503  0.8703569907869110  0.4869003295666255
  0.1291477057707978  0.6654765252747074  0.5003484896406455
  0.1544824732936242  0.8295543371806279  0.3071440973242389
  0.9930115637446122  0.8481306626747627  0.1555756596854354
  0.1579347451695197  0.6591610037520467  0.1457882612271188
  0.1475239422476863  0.8243649173352826  0.9700911670341864
  0.0001533096154529  0.4779985107956012  0.8207252467877596
  0.1458583724829998  0.3465790240357631  0.8275235568238838
  0.1772501014579432  0.5062617803246541  0.6654806630774781
  0.9901250267635360  0.4990676444356048  0.4975782754659087
  0.1786647426518584  0.3452840172282030  0.5147755869268704
  0.1324447464636537  0.5004415977925364  0.3348285671901697
  0.0074841969956603  0.4953056591737140  0.1425942356598401
  0.1357607140856537  0.3228700189983054  0.1315598865755550
  0.1473223249062147  0.5087178277183025  0.0149087688649809
  0.9962419762066537  0.1839252864242726  0.8346750615762722
  0.1774655648096121  0.0025693244476893  0.8249744334727968
  0.3412704240817572  0.1314009629292540  0.8369403012329016
  0.9883004575097636  0.1553328806338085  0.4868986291794083
  0.1706575990032188  0.9944197335167815  0.4774569457578709
  0.1750526748629533  0.1937690304518649  0.3530595318948623
  0.9908291534412005  0.1540423677067511  0.1650246912088758
  0.1797888403013820  0.9893052180056595  0.1697207558487649
