Cl O  Li
 1.0000000000000000
    11.7780000000000005    0.0000000000000000    0.0000000000000000
     0.0000000000000000   11.7780000000000005    0.0000000000000000
     0.0000000000000000    0.0000000000000000   11.7780000000000005
 Cl  O   Li 
  27  27  80
Direct
  0.6583504903435462  0.7009176525180957  0.7050290287947573
  0.6764668206100106  0.6538462380376256  0.3421424697606710
  0.6602826565326484  0.6578215409244590  0.0160698354719655
  0.6851994020765533  0.3428865896682188  0.6534773369093466
  0.6749284155179270  0.3335145816371778  0.3458069256700308
  0.6672966728329008  0.3286349763913529  0.9953081802968121
  0.6361244051438575  0.9992490999710958  0.6575111816989445
  0.6630587410918254  0.0021809368048192  0.3310607831108207
  0.6670393880527702  0.9773406882848386  0.9572502078558722
  0.3318493635367750  0.6637928150064504  0.6708569541712412
  0.3289579158019908  0.6617349416195032  0.3547092624604269
  0.3218310261788422  0.6618522683374919  0.0116705111745261
  0.3510874432989868  0.3480043098525709  0.6595775975073879
  0.3147974351828864  0.3211515924910299  0.3444356038647451
  0.3612583499242562  0.3323974272354580  0.0068089567282709
  0.3304637503817825  0.9947037457489011  0.6284619689068421
  0.3294656635706786  0.9774251206072559  0.3496780595971039
  0.3188278994407549  0.0200546631547839  0.0280469581760320
  0.9968464673298792  0.6670604329276366  0.6710602314145200
  0.0173284919926640  0.6493877012978195  0.3230438015075671
  0.9951740001797674  0.6812997993679974  0.9797020295800007
  0.9798963120218427  0.3480636614635341  0.6585234788889353
  0.9721875002983309  0.3384679917853126  0.2801520805059824
  0.9780901414891315  0.3292903339646602  0.0091780509501490
  0.0096247738397895  0.9825791827728692  0.6670696655281415
  0.0220274108539534  0.9658329508932091  0.3423272856570199
  0.0102015005234059  0.0002772021274278  0.9987194597462725
  0.8199163040192892  0.8418806435054551  0.8162670650128057
  0.8266141292679571  0.8361785973995250  0.5011325611710005
  0.8438115216997385  0.8328716681452929  0.1759439511115858
  0.8476900239714197  0.4828667973294295  0.8257738489735168
  0.8349817347639443  0.5162026053253480  0.5072195425545833
  0.8466494679652948  0.5083066953405023  0.1719681421571283
  0.8215626027288470  0.1652818735659568  0.8253800069056785
  0.8466897914335891  0.1757303076763240  0.4976571316406228
  0.8374119929514647  0.1486473497884882  0.1698557349229999
  0.4646055368337003  0.8454454648209674  0.8521877449767826
  0.5004259344372709  0.8250986313795969  0.4931271381522830
  0.5101736470724997  0.8474596949360056  0.1695769625115466
  0.4967660533792337  0.4971256372519687  0.8212011838631067
  0.5222787441573677  0.5292933197150602  0.5008698108605286
  0.4913811699747269  0.4853987548667044  0.1986182300419493
  0.4911917792270554  0.1689972702423661  0.8255191957450319
  0.4843947647240493  0.1741004258004944  0.4895945432230784
  0.5231972366525413  0.1634802120957771  0.1713142015731687
  0.1780074373390681  0.8245734546419324  0.8235141153326384
  0.1686251257711990  0.8323675438207943  0.5007246301805051
  0.1738926014868971  0.8235036681698353  0.1617216189074547
  0.1763321713187025  0.4843945547587005  0.8296638491016193
  0.1622325503920814  0.5016010968931272  0.5091275389539548
  0.1757104773637554  0.5067357804642416  0.1689561693569705
  0.1647161278644851  0.1789202543385518  0.8469056135426886
  0.1633835101110963  0.1774501278903220  0.4813242241671626
  0.1686951250449749  0.1863191249456374  0.1771773391252263
  0.6376772230418777  0.8645360359920844  0.8042525337899599
  0.8096396495032722  0.6706779662468829  0.7922188934536254
  0.8421721055098694  0.8716475411594583  0.6712520512867876
  0.6514828288002051  0.8500547287419579  0.5149071955907284
  0.8223453476445117  0.6849208144324980  0.5507775117047478
  0.7992001626685006  0.7963653262412098  0.3495836881065476
  0.6922790047408992  0.8746443521735958  0.1400132813727075
  0.8241639522587489  0.6753920468941925  0.1596378247367972
  0.8355549271977903  0.8585297015450902  0.0171704313410223
  0.6464323143963437  0.4998912360899729  0.8455899186906521
  0.8531957968099894  0.3367629892313505  0.8166881942469394
  0.8358819683392377  0.4993479623740680  0.6609753967707704
  0.6823254237961557  0.5218490649634387  0.5127366917933448
  0.8740834343572589  0.3359242125083371  0.4817839764823737
  0.8444737010646196  0.5042505835754405  0.3395636301186926
  0.6416397730245819  0.4810009057563895  0.1515110770658600
  0.8337570511134395  0.3611640923516307  0.1400720054598168
  0.8271895079139396  0.5348591324165624  0.9844511376979177
  0.6716710404054540  0.1483094180717688  0.8286680699588816
  0.8339364824502673  0.0195674301024112  0.8140182624326094
  0.7900353994509121  0.1601534348693247  0.6712339947939570
  0.6289863010621571  0.1852172133007576  0.4717130688196414
  0.8276756567164274  0.9955898600374800  0.4629458318421952
  0.8639100176365735  0.1900674868670854  0.3482352810432846
  0.6696219118670527  0.1969624153340171  0.1831044638676847
  0.8583559052185425  0.9973212476921975  0.1789816726324617
  0.8439274719137896  0.1526557697406475  0.0068452683454745
  0.3276578483181889  0.8371505711212215  0.8456712133937997
  0.4969949983724107  0.6541295144509341  0.8120919666279477
  0.4615404674184141  0.8562604133474674  0.6539239314663289
  0.3295033150019173  0.8263495495757389  0.4942249405280545
  0.5185089856967696  0.6878185171631171  0.4808847955277387
  0.4778090435754889  0.8288910616697582  0.3163367051000244
  0.3365460759432231  0.8334512572739085  0.1601802381377410
  0.5147927084626941  0.6780624240480320  0.1708257248596096
  0.4743846256616280  0.8149356598946745  0.9966064651574077
  0.3316148315570271  0.4737109813874364  0.8087011516043321
  0.5026962347701421  0.3384159275481375  0.8384502356779643
  0.4948021466287433  0.4860631609291320  0.6668920155493510
  0.3595336309756561  0.5048284318314291  0.4725627361179271
  0.5066092306110870  0.3677301375909630  0.4871646898896572
  0.5465471158611791  0.5148232674088953  0.3410755982380892
  0.3322477399705260  0.4711060286560504  0.1540986413136792
  0.5140520278879509  0.3160747423280063  0.1705985814671747
  0.4854965346699943  0.4903394728388249  0.0063728947037166
  0.1678178163330568  0.1996229950186524  0.0171236046608450
  0.4628861619592116  0.0118800478124450  0.8613891879757716
  0.4812809103897924  0.1764198956637304  0.6549832727026630
  0.3330582578774055  0.1897708705112037  0.5071438753234168
  0.4836643674434293  0.0085016175287621  0.5318865740900153
  0.4988668413007110  0.1198541060006938  0.3429447286439241
  0.3482307927740410  0.1994508105702029  0.1625351023706118
  0.5356619251484435  0.9907090503507094  0.1615963570491188
  0.5639458422365627  0.1627905127734933  0.0220238526479725
  0.0090482185865807  0.8283409459195743  0.8338238869139815
  0.2037873520654719  0.6800905001732677  0.8236950041442237
  0.1583315179897721  0.8498174842397442  0.6851947406431518
  0.9944846127216570  0.8118707524210281  0.4797025405868448
  0.1794546692879802  0.6741905208981701  0.5033885701541648
  0.1805727548541287  0.8379241663342413  0.3354210820034217
  0.0005302686230497  0.8340485790120753  0.2059034581033500
  0.2011392014016863  0.6536556327276560  0.1788794874577882
  0.1114101626812226  0.8443675812668835  0.0159677072298997
  0.0218762737579934  0.5505126542259192  0.8316256910962030
  0.1443312482591292  0.3405768970314818  0.8480851964465266
  0.1957640547382686  0.4855971333753812  0.6601715589565302
  0.0026922730146855  0.5153262176565058  0.5207547462599614
  0.1542115303691870  0.3315325981511519  0.4775811860771209
  0.2070683099292314  0.5106067929350849  0.3520772654752050
  0.0215826938078567  0.4925440653513731  0.1693099915970890
  0.1870955009475366  0.3373636510158369  0.1812271149236334
  0.1709145757029690  0.4946466751162975  0.9969852311544297
  0.0289477970527192  0.1431332774408818  0.7932996919572245
  0.3200249113135697  0.1945688774133067  0.8413217038629460
  0.2103492677929910  0.0647517728146004  0.7236596047382039
  0.0038186897190968  0.1309394464587908  0.5013832468293121
  0.1897561818456968  0.0128907736624627  0.4943450607393288
  0.1822728586734888  0.1699542947264444  0.3312769347144585
  0.0067940744626113  0.1869578835008717  0.1313426425833639
  0.1841621912988806  0.0013314282852505  0.1908419342007537
