Cl O  Li
 1.0000000000000000
    11.7780000000000005    0.0000000000000000    0.0000000000000000
     0.0000000000000000   11.7780000000000005    0.0000000000000000
     0.0000000000000000    0.0000000000000000   11.7780000000000005
 Cl  O   Li 
  27  27  80
Direct
  0.6754734391647182  0.6777700384555605  0.6598637577615495
  0.6623539801339526  0.6526162103510819  0.3001390080297869
  0.6546359225549472  0.6660563543139348  0.9993134970330747
  0.6827058337661549  0.3161962593239956  0.6811268165151371
  0.6782991993218844  0.3459195946769095  0.3376387404374214
  0.6708275359477375  0.3333556561985541  0.9908741915202655
  0.6648241569356683  0.9898897680232359  0.6530187680477714
  0.6813226092503485  0.9849946182777498  0.3414593283301919
  0.6611672313125563  0.9921741705630391  0.0030316482592843
  0.3520037586402830  0.6866688125298824  0.6469441751996283
  0.3140452253245710  0.6777212130511802  0.3143609455011712
  0.3274908955458800  0.6735151028423129  0.9776570576425270
  0.3318914166932505  0.3447138986836639  0.6740997639128858
  0.3444760229733774  0.3424574038755802  0.3244680471203844
  0.3002603076107197  0.3224277533783380  0.0001792787501467
  0.3506798857354400  0.0112360742684158  0.6653262921823097
  0.3392801861905576  0.0184340891658043  0.3249176780831119
  0.3573382377094219  0.9980089510902146  0.0077757754066103
  0.9701004181553607  0.6327399793147847  0.6826471246289801
  0.0000292714450326  0.6779618583278280  0.3243210445969139
  0.9998259035840199  0.6750107553415061  0.0245415813493890
  0.9963889833485768  0.3210605408421606  0.6717075620107033
  0.0017976976356522  0.3412630033117062  0.3357792455591510
  0.9853313153007545  0.3586557783318295  0.0061532903416926
  0.0069096035774409  0.0086248475636592  0.6402444876221036
  0.0276539860319967  0.9910358372312477  0.3628791465910441
  0.9895680185626721  0.0031564889371291  0.0140465232288065
  0.8206669935485453  0.8205698524916277  0.8493134117044434
  0.8180513121835267  0.8260927101731897  0.4915789449677432
  0.8337173844699631  0.8673899335472273  0.1714911929194431
  0.8230791952432351  0.4875203523269601  0.8328725296426893
  0.8376834161979217  0.4975666448604524  0.5183567643209060
  0.8402048475286136  0.4998139899658909  0.1844738112646316
  0.8324531870593628  0.1411531462004326  0.8408215969707783
  0.8336541462596462  0.1785717964533217  0.4835392308068117
  0.8211378388660781  0.1687481837958191  0.1748365225849978
  0.5060625246935966  0.8081590500763477  0.8232467995475916
  0.5017137439001218  0.8196373925300268  0.4917672021239365
  0.5050138716054851  0.8328414660675545  0.1748435670463264
  0.4810093028328040  0.4864590677909491  0.8353522610011491
  0.4952331633611601  0.4927417961315632  0.5078058211525860
  0.5005327035215259  0.5106936341774656  0.1602846290226511
  0.5074766395771828  0.1531145909295023  0.8291579123104212
  0.5098698131292037  0.1825702772373423  0.4868951474070641
  0.5017025699269799  0.1888223581226363  0.1603918040240991
  0.1524532783167156  0.8262808863585630  0.8402720480163338
  0.1843029276420704  0.8192985296488788  0.5093694891404684
  0.1646257127596565  0.8488212193101597  0.1600748437497254
  0.1597901657611922  0.4899298819845944  0.8304051058488493
  0.1595637814701935  0.4931599294453620  0.4991795948579400
  0.1669913967183323  0.5009225614607048  0.1520585605197932
  0.1554069116411585  0.1441151600047319  0.8566292872211640
  0.1785161455731483  0.1879443915228067  0.5021981465372121
  0.1824059837596110  0.1833961391145868  0.1682689996282028
  0.6619816763041994  0.7944795968553746  0.8267144558792622
  0.8311665607316592  0.6686441817169186  0.8260772964977201
  0.8263581085937932  0.8163143500826407  0.6756674804417615
  0.6554481003636339  0.8005384813644632  0.4547371409569468
  0.8336794091554451  0.6706835532715260  0.4865589160775620
  0.8478094649889841  0.8425198271955663  0.3169286921408278
  0.6815049555366914  0.8528044978227503  0.2045061337989293
  0.8370496575908143  0.6526650762408721  0.2076029640183090
  0.8076203272848411  0.8355144747730394  0.0218124725174259
  0.6574807513401922  0.4670865157396414  0.8337760830215972
  0.8128813253349497  0.3122141953737033  0.8372321605260263
  0.8179683980639819  0.5220086180020609  0.6817906962672354
  0.6760608419774511  0.5357058038325851  0.5136721975374384
  0.8186351117947755  0.3333554537715043  0.5161375160899617
  0.8304115078363893  0.4869317349519291  0.3383818906221707
  0.6496146791024678  0.4994614835015952  0.1741384933896201
  0.8774902906614672  0.3192195275535250  0.1831173476047915
  0.8473170814333661  0.4867186197540362  0.0017706389165701
  0.6744625994494851  0.1607782462389089  0.8024551124218660
  0.8167390990767446  0.9867726742235998  0.8531119148060946
  0.8703567614310893  0.1488424085316226  0.6670293109511851
  0.6652462983050506  0.2116743680026102  0.5054112710966272
  0.8019935840413883  0.9773590029102297  0.4990233616610045
  0.8355000380401788  0.1389161754812896  0.3154376549783670
  0.6562728286494003  0.1899232373895627  0.1540209794314686
  0.8427438495272171  0.0216288194322496  0.1292947278626557
  0.8356089437929015  0.1745904814831132  0.0107540928120069
  0.3616771805482828  0.8330183063381462  0.8400556130148265
  0.5207797404274089  0.6511399503632469  0.7987451104263306
  0.5324643965301120  0.8308300699312113  0.6429459575707722
  0.3455896146590230  0.8502574797129797  0.5232606405699866
  0.4755013842675077  0.6540206897071036  0.4774742330008229
  0.4699405917568374  0.8181395943041070  0.3245126013140168
  0.3147473637890571  0.8525217477197707  0.1732548183469898
  0.4848378865940363  0.6807049877633189  0.1632701142433596
  0.5097262113801676  0.8402308630887155  0.0041895879160055
  0.3128201570626719  0.5212974512911597  0.8170014392403467
  0.4765094709748652  0.3185022273030186  0.8441886065733527
  0.4976109524574061  0.4603413630467607  0.6788536417181605
  0.3157129408159839  0.4823037667715490  0.5143129196350545
  0.4782081578048776  0.3407075030020012  0.5087442729548570
  0.4828811052756943  0.5012457160027983  0.3249687909131536
  0.3149251959521924  0.4946901564846389  0.1445907635022950
  0.4967929447496888  0.3407788382943051  0.1805457548511912
  0.5006661434326686  0.5093246200405460  0.0048745105925017
  0.3260746754209773  0.1594044649449697  0.8472953759608712
  0.5326539897048332  0.9716478906028123  0.8351260285304377
  0.5234821820259161  0.1356973526004263  0.6689547565622381
  0.3628889898384285  0.1672268837894327  0.4813103065628931
  0.5219232103455860  0.9783419519735254  0.4725848910139088
  0.5370660087086251  0.1932477170690013  0.3264597471047945
  0.3421172620198003  0.1787089002940634  0.1537640691413796
  0.5113093933356384  0.9782102175102763  0.1344743299960919
  0.5266459548706216  0.1635614764729394  0.9897151815305191
  0.9806466422430855  0.8325937763295779  0.8439077187992303
  0.1513226017880777  0.6630900288134777  0.8431623824023446
  0.1962874996615648  0.8148453774685940  0.6626027171998171
  0.0087683924913756  0.8177489100982437  0.5105537683518589
  0.1674660476643990  0.6597521687060558  0.5004558974061107
  0.1580700621493246  0.8352129394398506  0.3385616458422778
  0.9963276685115240  0.8380092667039950  0.1821860414773738
  0.1446921645042452  0.6690749869640267  0.1750023103386777
  0.1113101930196495  0.8305850522302906  0.0223632486858592
  0.0017438865162968  0.4690722846114961  0.8463510942595696
  0.1457531251569767  0.3181976150786749  0.8624835584684463
  0.1388763948818104  0.4743210965532146  0.6838118089019626
  0.9839510272423372  0.5087664881791953  0.4939679485225409
  0.1327447783337752  0.3451525985857091  0.5092526482473988
  0.1642181360164980  0.4983196734852256  0.3125074424635709
  0.9890458693745694  0.5002297346405036  0.1372414774010261
  0.1393783836009350  0.3317450656205580  0.1794071634249112
  0.1638294862024837  0.4802501038672350  0.9787828126635197
  0.0103639800620684  0.1504493554227245  0.8723032136771277
  0.1577135071440355  0.9778204125969098  0.8334926851520588
  0.1381384065868277  0.1567537434576533  0.6604549662028162
  0.9918844115347532  0.1592419868735518  0.4662626893986090
  0.1613930236258908  0.9926518085732576  0.5089386434079504
  0.2051626909846001  0.1782962527533107  0.3470404040312390
  0.1911111566036283  0.1476704368848520  0.0194146773028272
  0.1724997302590804  0.0086701494722063  0.1927316810569926
