Cl O  Li
 1.0000000000000000
    11.7780000000000005    0.0000000000000000    0.0000000000000000
     0.0000000000000000   11.7780000000000005    0.0000000000000000
     0.0000000000000000    0.0000000000000000   11.7780000000000005
 Cl  O   Li 
  27  27  80
Direct
  0.6821962467052304  0.6636919449720865  0.6785722473441351
  0.6620871031055825  0.6576061781508016  0.3308151062451048
  0.6885215252116851  0.6654486878799445  0.0028834613215866
  0.6621817579940084  0.3424256019124917  0.6685776141937188
  0.6398385485033804  0.3332863647458665  0.3254704855807773
  0.6553008172362088  0.3358791718542722  0.9876004939294649
  0.6927289309536703  0.0164321330474049  0.6727155469722570
  0.6838480514305391  0.9979285845057182  0.3403323151988741
  0.6602723041198791  0.0121146424151328  0.9869812721148620
  0.3238239728204292  0.6755949388905640  0.6679027628955282
  0.3558174870499846  0.6905426380631308  0.3131077393470890
  0.3242915793051673  0.6704264904875645  0.9969491342879595
  0.3340915383619161  0.3495543538644973  0.7008688986133389
  0.3605682069932846  0.3600248930086885  0.3561544587406063
  0.3335002084644194  0.3186858279634841  0.9846318987157132
  0.3308569970206459  0.0012686688594213  0.6849029104101111
  0.3494404277042243  0.0029682077017228  0.3586230970967443
  0.3391789147315225  0.9889236418719360  0.9963406480654188
  0.9822829830705455  0.6638848579504222  0.6527686688956250
  0.9962974906975023  0.6650148057416813  0.3268872522587141
  0.0053143053614553  0.6574177185675586  0.9884950899114250
  0.9996448957147546  0.3446619754718381  0.6562511428873312
  0.9905358522821952  0.3100720306896879  0.3517834919424875
  0.9865341775788815  0.3491667870351988  0.9921780754868439
  0.0121255745242654  0.0005893325369115  0.6722877376454840
  0.9856481012453745  0.9653819124269732  0.3189379015327554
  0.0048640772389313  0.9969707819426677  0.9910409200274476
  0.8348642984418996  0.8422600923745489  0.8336837150265538
  0.8458750344108407  0.8311359972577924  0.5051740463048399
  0.8298020027837474  0.8288466282968423  0.1534969559957084
  0.8289289754039297  0.4998639685308691  0.8363084651233975
  0.8268706971628830  0.4886849347128324  0.4696006906726869
  0.8225045886139564  0.4752353981348747  0.1770622277065478
  0.8561992997689403  0.1788543029702561  0.8204100065839397
  0.8289409590852702  0.1638050461468697  0.4987794162911682
  0.8313404483612408  0.1615422254934838  0.1793141881487189
  0.5008119341877559  0.8269263243328511  0.8260700288343582
  0.5098123266410123  0.8459481512779002  0.5163496793484422
  0.5078220234032450  0.8324715299606965  0.1615659714720797
  0.4902666184914167  0.4960337248678295  0.8358632875557627
  0.5020406258938441  0.5041529928592814  0.5165602034800992
  0.4923623862220622  0.5087055772063642  0.1684247363465877
  0.4955062402450802  0.1572780794494761  0.8359679018550322
  0.4931616491849800  0.1862361697051694  0.4983577607467051
  0.4857110787094087  0.1658134767269351  0.1708260171019479
  0.1659955495200422  0.8244886168299025  0.8261454936384751
  0.1650707210582139  0.8400834347948550  0.4932055065076792
  0.1557017089475082  0.8291936692307971  0.1684754645652350
  0.1672038365795236  0.4981192093043518  0.8298691797025686
  0.1555286641840976  0.4974208764683996  0.4941865894466109
  0.1546924582846150  0.4960803235746635  0.1714013147771107
  0.1878773063082419  0.1750112659176773  0.8337013666652850
  0.1710380680554418  0.1571383339357363  0.5100562628596057
  0.1522784246251255  0.1527064770810768  0.1650831515814519
  0.6755321862884474  0.8677550505431317  0.8172702820727350
  0.8494631753224747  0.6959017727469196  0.8382749224547137
  0.8545738915309082  0.8366674378462604  0.6718660011302012
  0.6655731398133630  0.8643797009461109  0.5088680160780416
  0.8263311076192821  0.6682260274868296  0.5174988981948300
  0.8372832207146388  0.8405747657298147  0.3555179876110332
  0.6509591618748823  0.8594628288804418  0.1936412459869968
  0.8299228112469904  0.6405116996310725  0.1924557926987182
  0.8429498825722865  0.8308080654373267  0.9994668570918430
  0.6567153774593042  0.4910476632365829  0.8282633664029446
  0.8600295434319799  0.3394363819127167  0.7970973739524412
  0.8344973386862576  0.5166217298961769  0.6674679091074266
  0.6678048575505671  0.4854174382478759  0.4777150194441268
  0.8122752210567423  0.3324464341886700  0.5219650866771134
  0.8156159151428596  0.5051666665532100  0.3265438752543585
  0.6749605727855887  0.4696722574704283  0.1700522599472886
  0.8319158270072233  0.3137062237551220  0.2114080454667957
  0.8159114586353781  0.5068057588597994  0.0104580534735223
  0.6643452983008834  0.1739353256632702  0.8364843337441510
  0.8312876553866869  0.9997868384112866  0.8264799031245305
  0.8085411707277059  0.1724671222720122  0.6761443373103908
  0.6779640234069555  0.1503226860228080  0.5034804606364790
  0.8320505624514838  0.9924086474669322  0.5249067970483308
  0.8495083570399613  0.1706924038421437  0.3447483827436594
  0.6628271359137667  0.1491581029633504  0.1601432939242925
  0.8338032568183484  0.0023729863023425  0.1735590251849553
  0.8507974124922612  0.1681054873608833  0.9946783285200488
  0.3256661601859529  0.8366458996081757  0.8118222414287309
  0.5005770378393187  0.6585413506348680  0.7943547303418694
  0.5361339968804484  0.8560853740421043  0.6647357107326179
  0.3279921886855982  0.8689080750180533  0.5381597364756487
  0.5071121117400516  0.6643097928130899  0.5330421377475264
  0.5038329149916241  0.8137748818282375  0.3376101572057291
  0.3013396109480663  0.8233757538816358  0.1368311977244757
  0.4904693694243664  0.6608239585323591  0.1793143096049487
  0.4797921522624620  0.7846642526692653  0.0116163024640789
  0.3398944133812869  0.5037949398938247  0.8245448624713231
  0.5194631576902691  0.3400144933238700  0.8506365755823336
  0.4901165390767913  0.4644360769766092  0.6663432244194589
  0.3222490701312901  0.5186405348625379  0.4987339511758122
  0.4982378313387398  0.3502166546856083  0.4949784435795108
  0.4823644332680312  0.5198938416978660  0.3458059021365464
  0.3105782195533746  0.5142470581764960  0.2033148298366364
  0.4745506276945315  0.3277739118146575  0.1643161656116040
  0.4961461526344976  0.4983385187699644  0.0136562964818640
  0.3336154299410917  0.1607625979543841  0.8646098719086082
  0.5057774697161660  0.9874015233011675  0.8426580348758125
  0.4757174172088306  0.1600076361512866  0.6834175816904510
  0.3196931654740393  0.2028405925803520  0.5250212493022144
  0.5224670131657350  0.0153762305405771  0.5017793851672806
  0.4906588816282677  0.1654853222367147  0.3303047471674762
  0.3103578372243985  0.1590175452086446  0.1809224103302337
  0.4586557318711480  0.9998911473699107  0.1718794879538416
  0.4669997343731437  0.1585661227665276  0.0201461443841934
  0.9948496087679853  0.8401418957267998  0.8450296701897487
  0.1282941896495837  0.6725948485582217  0.8159726437135290
  0.1897765376163627  0.8321628691953594  0.6647551032439764
  0.0042419369955981  0.8603862201102174  0.5103033453164331
  0.1779205067734088  0.6790215835019711  0.4846395225030152
  0.1848445037646730  0.8319847333916498  0.3219341457511538
  0.9793774679209784  0.8078084659954382  0.1670073522661494
  0.1535601016114649  0.6608682900562369  0.1740122593491669
  0.1409428640909312  0.8262040646196278  0.9885139864765116
  0.9841869511716285  0.5021339854658707  0.8327774896105903
  0.1812093997775154  0.3459061730899311  0.8559380590423763
  0.1590079499497715  0.5018634214712817  0.6574921826434494
  0.9871951525028172  0.4824540276969339  0.4485541074060164
  0.1779898177952158  0.3323989245601124  0.4881209033886532
  0.1337022104658678  0.4605250649207511  0.3192034655792177
  0.0077439733476091  0.4517266541776557  0.1509559094839034
  0.1445457922985437  0.2321275356995871  0.0367296325069330
  0.1442809569894601  0.4824167001489746  0.9899380987260132
  0.0176481285652529  0.1458685014645699  0.8632479427184269
  0.1905635335000704  0.0154645203634598  0.8478484263709963
  0.1517678125136849  0.1637246117586832  0.6888994681371597
  0.0036913752733206  0.1688178483913778  0.5322721457359909
  0.1648562495990884  0.0060622507536623  0.5103451667448949
  0.1569216153196407  0.1525222482231719  0.3331994337350551
  0.9867091631116308  0.1700185646792015  0.1829472071372648
  0.1284264352411333  0.9899075524637176  0.1651606608987706
