Cl O  Li
 1.0000000000000000
    11.7780000000000005    0.0000000000000000    0.0000000000000000
     0.0000000000000000   11.7780000000000005    0.0000000000000000
     0.0000000000000000    0.0000000000000000   11.7780000000000005
 Cl  O   Li 
  27  27  80
Direct
  0.6532023715848859  0.7022117964334985  0.6715734087947917
  0.6786611762823979  0.6662703879396352  0.3310832368372817
  0.6742272546718316  0.6579180859286029  0.9727167523661014
  0.6443331923452258  0.3751625579043352  0.6371151023230419
  0.6721282076229815  0.3300762038010460  0.3327349403490656
  0.6753108871541262  0.3552700517332447  0.9909445414964524
  0.6752093497460117  0.9939252473263297  0.6873998437899769
  0.6635944095192149  0.0104137142942003  0.3187948420589372
  0.6802476375560732  0.9778028367833919  0.0035156778378848
  0.3076919480674400  0.6765959083454425  0.6465167861595645
  0.3146009047289138  0.6895389724451254  0.3295959648179448
  0.3270540346402799  0.6712737773263334  0.0616636939374592
  0.3331828981804396  0.3234436815186019  0.6755041372452875
  0.3356969409238187  0.3409516577726925  0.3545937014244229
  0.3040756495531969  0.3423352871425983  0.0072901670818923
  0.3303665913664930  0.9837726457996113  0.6758333645988711
  0.3578894434759671  0.9939663140814470  0.3336527445922703
  0.3641600666790108  0.9927310346400611  0.0158536315023725
  0.9929732654429759  0.6419281303626941  0.6772543620021459
  0.0029781176801858  0.6605287066173796  0.3154518605471587
  0.9744304865390631  0.6614076448670477  0.9728177229784768
  0.0040463204769115  0.3279882497545178  0.6774713637993924
  0.0195813389610533  0.3084391610731926  0.3333154808848148
  0.0139297642444513  0.3228587483158749  0.9998454221859854
  0.9830646998459875  0.0044979719614864  0.6401060834381490
  0.9734982391258644  0.9968156930472180  0.3330608478990347
  0.0044422934057399  0.9967223498228156  0.9741585820431253
  0.8350989055088455  0.8302615610682966  0.8199183070024745
  0.8254796530793376  0.8252361071331844  0.5182182386807216
  0.8330851612187263  0.8237183091147571  0.1679934106326867
  0.8313488229574754  0.4990991263460647  0.8249950154665634
  0.8364038312418395  0.4863336312543525  0.4822721743647159
  0.8485502639302503  0.4892687425037506  0.1679497673607778
  0.8308835646265132  0.1786032813656295  0.8386027285411334
  0.8259143044403893  0.1858945619958154  0.4923727173475199
  0.8306376562465740  0.1503240099783003  0.1516202606617522
  0.4862600144990825  0.8299188115877952  0.8492473954334506
  0.4882703985001772  0.8440797173037038  0.5097722939165119
  0.5259910193044118  0.8411746462284769  0.1493665492256015
  0.4944900100867041  0.5191619546367479  0.8208429937653680
  0.5001075226566918  0.4998971747466845  0.4975764690279817
  0.5123167887013201  0.5073349923181267  0.1877356956902170
  0.5011612364210450  0.1720126209970572  0.8514541741581353
  0.5137391221231230  0.1642145946120794  0.5019093795407625
  0.5026015858502684  0.1901614408049937  0.1675392857894565
  0.1624506613853008  0.8225433415476515  0.8302649203068574
  0.1734847574357738  0.8570509997341108  0.5031342656183168
  0.1482334303428214  0.8313483514125660  0.1549656206913643
  0.1669675983289367  0.4935151356955023  0.8324610918541393
  0.1705273792109120  0.4839188384934268  0.5110803775114808
  0.1626220260041991  0.4932989840918644  0.1721675373677060
  0.1847645796818414  0.1495984507041674  0.8348536176396015
  0.1692544369517659  0.1714472220046234  0.5092503964970523
  0.1787777794451402  0.1557365752818495  0.1825710529157514
  0.6424888390102707  0.8504924442956160  0.8391249093584626
  0.8287012390894287  0.6867056415163015  0.8311436156440658
  0.8286382437915714  0.8059609224927679  0.6624277142052819
  0.6485874397065047  0.8214903160352671  0.5086508480613391
  0.8245820915410997  0.6501258590785982  0.4787622512650744
  0.8585710506554842  0.8453969506013177  0.3430265339813483
  0.6820289955931710  0.8278188333745166  0.1822421696881522
  0.8702191079476069  0.6443150286761753  0.1614050376897756
  0.8270185035109304  0.8347383567279829  0.0156717583892582
  0.6617073440767793  0.5281899176541692  0.8122052696143006
  0.8251423286437671  0.3350281564744232  0.8205045357383194
  0.8575273367873847  0.5144045950862186  0.6866174227575916
  0.6611358925155605  0.5115524789271854  0.4527369342263555
  0.7971296638022061  0.3404849014815629  0.5163057079154375
  0.8483934234521657  0.4519669027798737  0.3146183671701416
  0.6823616237211890  0.5206588216982391  0.1720802913092982
  0.8672824582526314  0.3416954962094106  0.1390306139480886
  0.8318260649697778  0.4946336261157501  0.9918842141868667
  0.6580153176032546  0.1515467300864232  0.8340044766516448
  0.8385753066890617  0.9773177785566340  0.8456113197964547
  0.8013748829170695  0.2052361427085236  0.6625802632299134
  0.6671784614044457  0.1483450932620769  0.4635548786731905
  0.8441105529060636  0.0142383342807663  0.5233784685455044
  0.8246325363618777  0.1609246388659620  0.2955671275747754
  0.6907893095655183  0.2041344334906935  0.1141843636242312
  0.8501019887222021  0.9916752238579900  0.1600712053740887
  0.8258051557752071  0.1543806885391011  0.9918385314624323
  0.3081127129328846  0.8448065113828398  0.8579882764090300
  0.4740325300199839  0.6864958461220233  0.7985303507592403
  0.4661001426807875  0.8770605087399108  0.6482844601281046
  0.3256667210980701  0.8632222717411764  0.4857449318580380
  0.4884995459204039  0.6754745434610895  0.5256685257584234
  0.4974873474111707  0.7906173569818660  0.3476968499005193
  0.3380041032224347  0.8323140903811328  0.1807891483256195
  0.5087803476581718  0.6735511221205333  0.1652025995056460
  0.4964588155717964  0.8328957847510651  0.0023674496188715
  0.3121577519383293  0.5394302463828462  0.8014744497696435
  0.4864694860100812  0.3437764462800202  0.8372659003051112
  0.5353502744313234  0.5355066838499086  0.6662733828095065
  0.3457749132905844  0.5094961844712256  0.4953145491749669
  0.4802544492748769  0.3343483457135157  0.5354781405854414
  0.5080932292807713  0.4830408314081873  0.3409042078217860
  0.3279692073318389  0.4885207745552192  0.1611111540990644
  0.5310693876703081  0.3410308877199334  0.1817406769152992
  0.4973310332434153  0.5280840078217818  0.9855359349068933
  0.3276251218328095  0.1536602607906773  0.8610139130350405
  0.4960920177577940  0.0033697242411523  0.8591706932915634
  0.5178455167673226  0.1529771707115652  0.6815751268919467
  0.3328226185174366  0.1788972459271606  0.5124616182422005
  0.5196647691481187  0.0204538935307926  0.4499495947232167
  0.5053725692477938  0.1559858540721659  0.3125866068726018
  0.3547158731620575  0.1484404870092340  0.1897428408585169
  0.5071252231292485  0.0043638419006214  0.1736021985968337
  0.4648680906856748  0.2086380102490512  0.0148469541933482
  0.0116029614613409  0.8399062383352435  0.8274396864600203
  0.1532715157258332  0.6657624984720125  0.8090593913207860
  0.1543164441562307  0.8619889242129458  0.6931194605638183
  0.0021458379165900  0.8337616057279145  0.4968216590451714
  0.1661316150992087  0.6936982815201089  0.5208179283088161
  0.1697424885685208  0.8418503477202759  0.3377548680257220
  0.9918608472016339  0.8429513079580222  0.2044326884552139
  0.1538034838910140  0.6731438793820066  0.1919238101343686
  0.1183441250518828  0.8229959684307141  0.0161687193265366
  0.0120923275887496  0.4690561991671314  0.8697950365080941
  0.1973574247428898  0.3167551476715140  0.8407094273324609
  0.1507264004303298  0.4816399552536497  0.6751019956684127
  0.0067530763019147  0.4958055572771107  0.4885722304607816
  0.1614888899869077  0.3225619497756485  0.5016847664864483
  0.1713217839246377  0.4888116622255954  0.3289233199745957
  0.0104997137979334  0.4900212853036045  0.1573785916088431
  0.1714702641655708  0.3300261638343676  0.1774340819189757
  0.1716728531568808  0.4514175157670687  0.0042287976535232
  0.9970202964571064  0.1645007960962556  0.7964996835677687
  0.1824210209996946  0.9960452778366318  0.8671312584760740
  0.1671392767097620  0.1378517102253305  0.6905974624373871
  0.9884079237636721  0.1619261466942053  0.5069881122753480
  0.1588158914027751  0.0184408476139948  0.5194837721098498
  0.1872099794126773  0.1817487345623399  0.3348089471718716
  0.0117555092208033  0.1458429734719234  0.1860567657402524
  0.1998595242903384  0.0083302648821118  0.1590255684490173
