Cl O  Li
 1.0000000000000000
    11.7780000000000005    0.0000000000000000    0.0000000000000000
     0.0000000000000000   11.7780000000000005    0.0000000000000000
     0.0000000000000000    0.0000000000000000   11.7780000000000005
 Cl  O   Li 
  27  27  80
Direct
  0.6623997293061205  0.6660423453692914  0.6645801734086842
  0.6740477865982432  0.6533643392484467  0.3437864165392495
  0.6835750966617909  0.6725364075497610  0.0090918145149554
  0.6810089694385317  0.3327234552869228  0.6760891633176837
  0.6499524900218998  0.3375604901242021  0.3228472613078390
  0.6634657911205035  0.3377697592081512  0.0320533146557578
  0.6883058977834035  0.0066947862556519  0.6734856680610553
  0.6485057843833167  0.0021140556924815  0.3419722248346952
  0.6639047339350084  0.0028770981303681  0.9983166731096270
  0.3277820267876579  0.6631973546424065  0.6827004712453223
  0.3434065205580920  0.6707017707131901  0.3251080475693758
  0.3378995331572242  0.6809021102314813  0.9930457202349124
  0.3303449556635322  0.3313235102968136  0.6756528520548245
  0.3228962475168179  0.3480446323661311  0.3205077916520956
  0.3327402344568698  0.3187736607411151  0.9525938100798391
  0.3246979494724075  0.9793166562024170  0.6710597822978075
  0.3244066771906371  0.0001221295591019  0.3493042945153896
  0.3404787776533020  0.0123305862118239  0.9975824716237884
  0.0104451065240886  0.6457287909348868  0.6361178776043959
  0.9932701708431300  0.6592720512368417  0.3032220802985429
  0.0426087303248343  0.6289891670332294  0.9995113731627396
  0.9837598153101610  0.3388381691763105  0.6664123001498394
  0.9986690640972276  0.3412406138872064  0.3625351693942936
  0.9835340901722428  0.3463233546773755  0.9772085622993555
  0.9936625282350758  0.9900849800861172  0.6628622964943631
  0.0083312316938500  0.9996697863902013  0.3502891021120351
  0.9973004143289973  0.9941959590704074  0.9880773779289418
  0.8414808268524472  0.8218693926722939  0.8544637094898412
  0.8269426780867729  0.8360820387420983  0.5003910671108552
  0.8309782637489982  0.8399377882133966  0.1791261207979031
  0.8290233042741031  0.5143976433395248  0.8218839665244411
  0.8307999660036487  0.4983649351807255  0.5110626972861888
  0.8296226502827668  0.5147181258445624  0.1611896064796607
  0.8237331567288420  0.1714220315807540  0.8302338394108773
  0.8137112364121301  0.1628117869016796  0.4803452426923444
  0.8455530113252525  0.1601422396987439  0.1826057203255041
  0.5059946313200794  0.8370154703535375  0.8295744130538715
  0.4985426438551604  0.8303444464462463  0.5165217499616949
  0.4988011431975892  0.8462488158555543  0.1726779083441837
  0.5155186620654227  0.4980516590786559  0.8176232819829825
  0.5059357655340353  0.4952991775134703  0.4957329373000744
  0.5106704127695915  0.5206875375976969  0.1512212483602914
  0.5163778434350428  0.1628716243375621  0.8358132147247070
  0.4924235170560899  0.1695081243115323  0.5021251786745600
  0.5044072793673856  0.1731491998966551  0.1699164187752878
  0.1528349652991635  0.8343862668616011  0.8383247676153753
  0.1608612585467018  0.8216355489445148  0.5258450540445850
  0.1626434870201132  0.8344577640955446  0.1742303011453995
  0.1704343474875326  0.5025009651449970  0.8185581710691794
  0.1843928463964761  0.4969848280414841  0.4900035635424389
  0.1802037603024860  0.5004160475042138  0.1468761416177681
  0.1490188409228383  0.1623630466179707  0.8327458781264644
  0.1572390997693706  0.1603862351430638  0.5109506336714913
  0.1504540487050000  0.1732092397595873  0.1739430774046224
  0.6624840199296030  0.8418520193658977  0.8583792963970218
  0.8490856062544573  0.6646593637659446  0.8495580113973137
  0.8450377130276122  0.8410663595007177  0.6682430908724666
  0.6689073945843279  0.8177102455389501  0.4628539261844418
  0.7881932825307044  0.6639550795747319  0.5070202291042749
  0.8429149820139504  0.8248946244442051  0.3446379866518021
  0.6372987751470154  0.8200479540793616  0.1284796826786176
  0.8176752438695917  0.6837530927990364  0.1799379139951955
  0.8596398287409819  0.8403415896920785  0.0201852760932513
  0.6703095257865735  0.4890650721501871  0.8356731352063352
  0.8346517479047733  0.3512971897148219  0.8216862357823232
  0.8607622462459934  0.5269486872148161  0.6624990209110250
  0.6659793682816683  0.4918997795829488  0.5227128598196280
  0.8252824523961978  0.3116154556533824  0.5193876716455155
  0.8151434482739567  0.5065353362449241  0.3266316552441284
  0.6699131736233194  0.5060930736268047  0.2023575599397789
  0.8234040913168981  0.3416528363311548  0.1777618029685359
  0.8196423489674668  0.5247245807346798  0.0020693981247260
  0.6630487104273630  0.1634417196375483  0.8945198121369408
  0.8708283766303534  0.0191718171083233  0.8583410781700442
  0.8253995362017270  0.1519486202519481  0.6641877888156036
  0.6535589708242339  0.1838289271539754  0.4680747222224859
  0.8177502228487895  0.0035263550584659  0.4891908594234229
  0.8684308306540596  0.1515137765851991  0.3300532391792939
  0.6704228849343888  0.1636988323546869  0.1941964907625701
  0.8123292264586215  0.9859613190471652  0.1832219487501101
  0.8377130926623455  0.1801949770010010  0.0165588030894240
  0.3151727041647663  0.8447850253739791  0.8298955433254682
  0.5078346122307617  0.6561956054213639  0.8343492623014923
  0.5154714965628495  0.8361736167393691  0.6754113565845680
  0.3421044288037935  0.8344050520918105  0.5061492259949540
  0.5045416504429566  0.6715905469174720  0.5059867985302986
  0.5261260823806009  0.0126764009540464  0.1501376361207019
  0.3505698470501813  0.8286255978820867  0.2254512474743540
  0.4884569185323924  0.6780752569682471  0.1392817366020536
  0.4567602433284734  0.8634797302067613  0.0074079946865721
  0.5223944206907506  0.4732490419053549  0.6601888424493687
  0.5056814361888297  0.3451145413075649  0.8559488762678615
  0.4915837281978281  0.3361841683707895  0.4728749963075452
  0.1676683336740765  0.5282426414017181  0.6728966458319250
  0.4888747684483215  0.1438858091646493  0.3279553459646269
  0.4821362148772602  0.5110690139055677  0.3400111925483101
  0.3393752263493199  0.5098243304625557  0.1524700613151168
  0.4991453501528485  0.3423545294561315  0.1830830635513314
  0.5024180692356864  0.5273843507111163  0.9890635835373990
  0.3463351136564907  0.1731651309054642  0.8215626743112046
  0.5439667474908244  0.0010475770048930  0.8482185920950559
  0.5607911073554737  0.1686167975264244  0.6475180832169023
  0.3326118552219690  0.1627217068645763  0.5158695704930673
  0.5126739952218172  0.8421157820545306  0.3367621169448737
  0.5009719303928425  0.9958539779898490  0.4813333296071947
  0.1759660512311652  0.1656909675572538  0.9959362902586609
  0.3260471055157544  0.1758016217711887  0.1969077176950329
  0.4768622614959727  0.1862524850061519  0.0032317728315886
  0.9870228242204602  0.8090295258825331  0.8532556248574096
  0.1640641706614610  0.6776246543556811  0.8553589228743027
  0.1759559096359768  0.8021821475295688  0.6860191412684354
  0.9932561040609315  0.8559139787399276  0.5016251433764647
  0.3364616330953019  0.5164240190775433  0.5110646001004556
  0.1642532577685580  0.6609253134369081  0.4800328167838835
  0.9904399806964986  0.8323889596479151  0.1706463099882836
  0.1560949011138148  0.6586456204889323  0.1710427228796528
  0.1853763787027087  0.8450060757122192  0.0189809528084362
  0.0153034898240938  0.4976458333294771  0.8329393983859491
  0.1588057434348832  0.3379475306431716  0.8261198739950198
  0.3469307754928503  0.5117896946878036  0.7904350620293182
  0.9642829209709317  0.5242632090030714  0.4805288035409854
  0.1456972660715624  0.3321892705455480  0.4871133506126577
  0.1747327441883445  0.4950257390547758  0.3315891341759616
  0.9910256274545757  0.4876664631786058  0.1629479384398585
  0.1602925296293009  0.3292748473406263  0.1542867833577920
  0.1864032911256856  0.4965919981088941  0.9793067604197662
  0.9989618199478675  0.2184100663594650  0.8292699627711675
  0.1142829664805808  0.9789248447309207  0.8050604973388101
  0.1363470391910660  0.1613048288517623  0.6729483052150008
  0.0048485277576670  0.1573968228375918  0.5346634645801878
  0.1810155939851884  0.9810558410940542  0.5162617121736884
  0.1407611431934694  0.1666581538792255  0.3454541725160723
  0.9909001726579580  0.1329561958358636  0.1587965240198121
  0.1544290884366687  0.9480150275072819  0.2694438072574553
