Cl O  Li
 1.0000000000000000
    11.7780000000000005    0.0000000000000000    0.0000000000000000
     0.0000000000000000   11.7780000000000005    0.0000000000000000
     0.0000000000000000    0.0000000000000000   11.7780000000000005
 Cl  O   Li 
  27  27  80
Direct
  0.6531028273803389  0.6699276153582835  0.6740153287094265
  0.6505643112066546  0.6573817131300537  0.3228661175390725
  0.6579818455877198  0.6760112364528420  0.9872675914413359
  0.6688346074870983  0.3194035394027210  0.6960546142276796
  0.6930585666962119  0.3620380970804047  0.3262729445423170
  0.6694437104795559  0.3417134496436782  0.9962623393428292
  0.6598118266021483  0.0036987403642183  0.6808859456876929
  0.6714199652800762  0.0231680677272971  0.3407465595645563
  0.6736159748857183  0.0022415929690872  0.9964014174798895
  0.3278311007743296  0.6479516895065772  0.6482586323656199
  0.3524319386645193  0.6716797024439989  0.3168763213820362
  0.3164479800048153  0.6950442778564427  0.0084787902825516
  0.3159677218294727  0.3272730124148799  0.6342925829277238
  0.3154840628796957  0.3236485156051250  0.3382336099272454
  0.3206888469381109  0.3292375466892242  0.0270375394155144
  0.3631994382905767  0.9782807019441720  0.6753655576161366
  0.3173638409483431  0.9943895144500482  0.3488123868148952
  0.3384196751311834  0.0145613870294659  0.0215390261170133
  0.0184195942380956  0.6433675670251557  0.6650547738995451
  0.9770201679770179  0.6784852593685012  0.3282055763136333
  0.9891150121318201  0.6958363344163925  0.9937325566311691
  0.0064089021707638  0.2824656635141511  0.6674441418230324
  0.0101019199042475  0.3325660749096563  0.3271663563260364
  0.0201877135461449  0.3496185903019889  0.9424626855820629
  0.0250813444561739  0.9935350236947195  0.6922072857216477
  0.9816934013760421  0.9924469435105931  0.3401372541450489
  0.0145728426491553  0.0180584142608744  0.0052190765050703
  0.8263784790837639  0.8368368148933508  0.8407617768965592
  0.8468411007975456  0.8395968672301942  0.5142430186937614
  0.8200961151118393  0.8456202055493607  0.1686701767955499
  0.8279878550994619  0.5041879178599807  0.8285950205323616
  0.8445538370779122  0.5090493249140404  0.5123506091772148
  0.8533062968807323  0.4997272758788581  0.1679094255788318
  0.8427428437207427  0.1573108384807440  0.8359505717508176
  0.8311437737746402  0.1717933704145212  0.5177250878313684
  0.8343401778597526  0.1711322436702983  0.1787425115689823
  0.5119338061418249  0.8170175063434211  0.8424162536589237
  0.5100197774163733  0.8347906013044647  0.4838384353478875
  0.4831084776666579  0.8398741922882422  0.1683357976735521
  0.4677972599982932  0.4824466859296621  0.8248990264886632
  0.5040028762773862  0.4842927396518345  0.4984141950593902
  0.4942001439700570  0.4905085860952374  0.1453206923196589
  0.4931450537017661  0.1670537434735431  0.8513042586142031
  0.4935028232693532  0.1605036899711346  0.5032562905729114
  0.5116232020768110  0.1882776123503146  0.1662442303041873
  0.1724458505072321  0.8185736035596457  0.8206453054377133
  0.1775480040514646  0.8398226138759864  0.4854534793209761
  0.1479453658269165  0.8408789591919854  0.1696515532537035
  0.1748489632273919  0.5181546150644359  0.8123473348468125
  0.1552425269628953  0.4844940735954364  0.4856969585763195
  0.1671470492055976  0.5117373132212011  0.1661242113064378
  0.1805722236881274  0.1689505051716579  0.8269526893929773
  0.1662555807215550  0.1378559188629254  0.5016625014400380
  0.1530013963678815  0.1554819100869737  0.1811915752294172
  0.6788759203151686  0.7854113565161146  0.8308959683205528
  0.8433052670355464  0.6864470391153096  0.8441889478182956
  0.8136033889498973  0.8675380348378118  0.6585706711299193
  0.6547832148050612  0.8193293851922944  0.4909800211748422
  0.8563393018513509  0.6740735237625789  0.5053697909131081
  0.8094745249031843  0.8370682294965338  0.3534303146136115
  0.6527474059665279  0.8755502594053979  0.1793482745151203
  0.7946105495583609  0.6819895954815718  0.1796472592674832
  0.8465211041174271  0.8520984379345462  0.0161276475420428
  0.6604964348841330  0.5215308958258851  0.8116274232873656
  0.8264591260203525  0.3432934737371739  0.8241167673979175
  0.8259289290918562  0.5212114659415055  0.6748864532749772
  0.6570753367738867  0.5101509734037556  0.5046607699289332
  0.8211178049169348  0.3354434944498983  0.5274932860840238
  0.8899123948348929  0.5006135419877241  0.3444740917425933
  0.6709245858041233  0.5253148646653701  0.1389465782874713
  0.8385323610876025  0.3471198712862699  0.1725144182890742
  0.8387109827162313  0.4915666722838636  0.0028661191982658
  0.6736594562159876  0.1798949665245369  0.8510845847799010
  0.8126137635894696  0.9909680494407743  0.8398042969516190
  0.8525022566394425  0.1666711563496664  0.6773731886093557
  0.6725757832482830  0.1747614772730155  0.5229870575313156
  0.8474372079734144  0.0129539505179376  0.4707120533120233
  0.8174802718051811  0.1843917417340256  0.3427805870450523
  0.6571542023524383  0.1551204765897876  0.1390940160290986
  0.8253427003560113  0.0210828160818820  0.1907717592383389
  0.8448683277422798  0.1825077531827450  0.9893428583725261
  0.3515423122666288  0.8274219328131898  0.8496658140741725
  0.4819978414159373  0.6488220448493391  0.8387470609566015
  0.4941656099153833  0.8141429612672844  0.6781029381234169
  0.3194088804603413  0.8047231399671112  0.5150808237669365
  0.4758595245325581  0.6477078458825445  0.5146858076222101
  0.4870079108952748  0.8442268596810709  0.3366914396920379
  0.3064106954750333  0.8570487509488210  0.1755213506556952
  0.5026288824350447  0.6801070239196391  0.1619530602490485
  0.4900943970924162  0.8148936417382812  0.0065300661933710
  0.3118518940847583  0.4642081302106068  0.8181033075187749
  0.4985031357648965  0.3322100664574014  0.8201443389751895
  0.4545181265107480  0.4959132263797920  0.6514450770398884
  0.3221174758411585  0.5086582358540775  0.4740639618566923
  0.4983614773155373  0.3235379094651852  0.5085600412159104
  0.4955411422033023  0.4610972313112751  0.2934918878760197
  0.3201974957604465  0.4928713955898079  0.1707154288559502
  0.4843747398331648  0.3359442179999625  0.1423093369220026
  0.4968394283290670  0.4770475516608585  0.9821725532078994
  0.3368695292702190  0.2052878812173811  0.8416547230980642
  0.4683213031444796  0.0244178953477090  0.8519444948869001
  0.4880606125243798  0.1687462562785406  0.6688069616922321
  0.3392243833817374  0.1565306137818477  0.4799005409798331
  0.4966934379408450  0.9916957417899431  0.5072118770651067
  0.5507601644621780  0.1803664191232188  0.3349751417087042
  0.3393495642692535  0.1337719126504192  0.1838640171391632
  0.5070800913156527  0.0064308558704534  0.1315559363399548
  0.4889082555521688  0.2084340226660603  0.0236493913682782
  0.0042465903430464  0.8434963409442211  0.8292571998972426
  0.1752885942938657  0.6688251571603697  0.8190122859426140
  0.1783770642760939  0.8078311239169276  0.6517243049122036
  0.0074106725215872  0.8500000791376651  0.5330310019110316
  0.1780765410781535  0.5233695002326296  0.6373838464032374
  0.1580070833015936  0.8262783819241929  0.3400245427637926
  0.9812397800700982  0.8154299114782675  0.1858482070800305
  0.1935078384723824  0.6662688274063144  0.1864875931591188
  0.1652017859863819  0.8411310213542346  0.9987699457758324
  0.1565869158492224  0.3395924190172339  0.7762704621713099
  0.0103915752999588  0.1767051413185388  0.8497799019593665
  0.0225261482935969  0.5019921916522080  0.8530487749282609
  0.0120113067244164  0.5019107350074208  0.5150024844987141
  0.1653149730712049  0.1817228018122389  0.3434664503747450
  0.1420679369251521  0.5307731481180875  0.3449050184459311
  0.0049599059435969  0.5249545445169572  0.1624260108078980
  0.1339868163112106  0.3157142254516617  0.1730983191138479
  0.1458070884158402  0.4683364679469909  0.0095022386726410
  0.1872951498909543  0.1319543910208978  0.6535997105565782
  0.1744404047130426  0.9591749791083869  0.8489824203544859
  0.0234873655479415  0.1330751891095118  0.5333015254202109
  0.1647620739490882  0.3092385841327120  0.5104439083109612
  0.1991834476056256  0.9903694005402632  0.4915130115966238
  0.1315135626183401  0.9914910842472194  0.1809887433256476
  0.9904939692323855  0.1643953297583393  0.2067277475453130
  0.1739975550564791  0.1891214902349798  0.9861962867663663
