Cl O  Li
 1.0000000000000000
    11.7780000000000005    0.0000000000000000    0.0000000000000000
     0.0000000000000000   11.7780000000000005    0.0000000000000000
     0.0000000000000000    0.0000000000000000   11.7780000000000005
 Cl  O   Li 
  27  27  80
Direct
  0.6756650001839816  0.6775478594605877  0.6704663964002820
  0.6778384999017005  0.6700514190155611  0.3585039244268091
  0.6542641290949783  0.6702702426562546  0.9792903611980991
  0.6628770761751659  0.3428251377887562  0.6550767180074654
  0.6408624867569728  0.3486552392463076  0.3291772246350190
  0.6720358880374941  0.2969055129782046  0.9746475475239639
  0.6574786301583312  0.9973226655425631  0.6631093067362485
  0.6497683862634429  0.9701987506530261  0.3429872837884393
  0.6397850080569881  0.9790994908000679  0.0204501821514966
  0.3423761097903741  0.6762243914098439  0.6943059871274823
  0.3557922054197262  0.6580566041873533  0.3499658348695897
  0.3116574406342317  0.6425729591580795  0.9892751715759304
  0.3269095293613876  0.3235231922923734  0.6675186132175747
  0.3379519249208971  0.3198383722218168  0.3438646431071198
  0.3349973199466159  0.3343252664585145  0.9758945968331191
  0.3418102857011359  0.0291333264692745  0.6772457187791471
  0.3243056697360699  0.9527734152419634  0.3450632541536270
  0.3332276621929890  0.0178964124318916  0.0123207131019104
  0.9880640594700814  0.6632374816112024  0.6529258496338995
  0.0157683229059626  0.6699957110914917  0.3470695491283183
  0.0164424872173533  0.6666348552712275  0.9977645201788042
  0.9977791860946973  0.3279962835370508  0.6750389805398724
  0.0020126574822500  0.3344737466994475  0.3419155945020753
  0.0360079016402343  0.3538565213167636  0.9941380057406902
  0.9962429232501252  0.0196494230910212  0.6717944797877583
  0.9842976903973961  0.9955867235955203  0.3194690055171808
  0.9955356064486748  0.0343795119200235  0.9921451803884008
  0.8455650188925162  0.8359272689474718  0.8360250026599499
  0.8571465991415272  0.8353234695437157  0.5122369448717935
  0.8326725210698410  0.8356513203933615  0.1856293211941907
  0.8578936359256303  0.4916481282023500  0.8363579546712476
  0.8293690735608631  0.4865123515251675  0.4926850829398879
  0.8354767025035124  0.5009713513144204  0.1593056064415530
  0.8195254509895007  0.1542733490246745  0.8429706795882340
  0.8131238979707303  0.1860433837913939  0.4874792260181093
  0.8293922312153453  0.1655488393318792  0.1772059672887243
  0.5123375043803687  0.8355917258699385  0.8079393021388680
  0.5061057471708617  0.8200711581468050  0.4945293957894331
  0.4861490716250256  0.8436205494555977  0.1647021496441208
  0.5072459377708340  0.4994228653552633  0.8239551683671346
  0.4937628387880411  0.5189954558170551  0.5152103958043990
  0.4754177254700394  0.5041345168779771  0.1562853240110062
  0.5086464900420923  0.1554772332958256  0.8232615723241444
  0.5027330291254866  0.1745687052673138  0.4973689209859768
  0.4892009832820833  0.1750717769711541  0.1655874036177385
  0.1677525570913101  0.8411529637201182  0.8244230177643324
  0.1695469008236442  0.8244623676498909  0.5076947652750636
  0.1607972648781669  0.8343067999294519  0.1559808939710072
  0.1695704835749308  0.5220338858326048  0.8201838714609587
  0.1827921986298372  0.4951830307999210  0.5037681258509711
  0.1717023946552950  0.4963199825670986  0.1807433394963011
  0.1858272885990673  0.1610703129209182  0.8286840261890700
  0.1603188184249189  0.1465726900505881  0.4895838195681205
  0.1581735471592765  0.1870140012518576  0.1687780790173452
  0.7014291863286259  0.8071350980230407  0.8160963025323784
  0.8579478863749419  0.6788832707072620  0.8327575061949934
  0.8722431226810118  0.8344706038980451  0.6693080278512494
  0.6675894969206684  0.8167541075400894  0.5283956436263074
  0.8422986560190379  0.6539758368076418  0.5156729416128956
  0.8367983082253994  0.8100172543562451  0.3396977227750687
  0.6429402789656076  0.8664207177681511  0.1640174705126688
  0.8203102201756621  0.6644055261732094  0.1980368645339710
  0.8720168902103002  0.8313359805484922  0.0080064416923126
  0.6724821587111972  0.4779379060698272  0.8312195464424192
  0.8375710937302203  0.3189817009476125  0.8462597142912754
  0.8433773492813205  0.4636821025530330  0.6579942990743619
  0.6655932828130506  0.5125745102869262  0.5050424446140549
  0.8182716988146632  0.3447643079537768  0.4951123047216634
  0.8433530580353600  0.5193201892901360  0.3150034445587512
  0.6519997801173676  0.4787437276691543  0.1672036621531253
  0.8499641635359491  0.3482141102196664  0.1831483752734328
  0.8588869859437718  0.5097661993414416  0.9728593423919111
  0.6708273580655532  0.1286263276563792  0.8273914080206960
  0.8724866829071748  0.0006399207903743  0.8327941050055739
  0.8238343941396005  0.1979178557385727  0.6495943862212473
  0.6412333735973784  0.1689968298756741  0.4506520777257090
  0.8115676388128658  0.9974198678488921  0.5006089683429981
  0.8637947892776160  0.1609734313349460  0.3316893240787211
  0.6522563766455295  0.1696674504485265  0.1651454851256035
  0.8464511635451525  0.9923288164794573  0.1635299047208332
  0.8453993525950662  0.1888897105368066  0.0238868544928768
  0.3207033184455490  0.8648023539914478  0.8098641404687719
  0.5286479019659054  0.6701736039827419  0.8095598521277078
  0.5102549753787716  0.8373817477847622  0.6602371098138879
  0.3328813499964132  0.8180631627848964  0.4958599487869153
  0.5067170768608656  0.6672479258338586  0.5566861193508358
  0.5264339978090725  0.8145997169358592  0.3371868783790744
  0.3276723149699549  0.8382269212025452  0.1619168242901262
  0.5077447180212215  0.6558739952523993  0.1523625914289722
  0.5099420231599815  0.8185670441969357  0.9898147282251356
  0.3310944657008595  0.4961195797879251  0.8321808320158931
  0.5442223557696613  0.3049767652734747  0.8255927222281466
  0.4870641228603548  0.5062382197489697  0.6734794420638033
  0.3417151854732010  0.4971030918514527  0.4616815584394495
  0.4992073167159709  0.3298523776408868  0.4969786011488027
  0.5157236230964320  0.5288040585088247  0.3213107880286051
  0.3194965698316450  0.4970567360570783  0.1618426955045370
  0.4967093669230406  0.3187100236042502  0.1554214058484237
  0.4771115540508598  0.5239067408961535  0.9842112413193519
  0.3453381033519684  0.1863736840083408  0.8169408281836024
  0.4959001445492789  0.9969574748095598  0.8192439621839300
  0.5259710471464767  0.1658649089272342  0.6612805402841179
  0.3417387884671924  0.1463132393010258  0.4867282621492428
  0.4944083381640295  0.0075824961567065  0.5295711375037422
  0.4590456281197632  0.1793633316376873  0.3355880892980742
  0.3063699043979113  0.1462944439494639  0.1548416345354633
  0.4879513606190592  0.0001186469411152  0.1627507731280050
  0.5163781912042456  0.1387578116137253  0.0089261746857499
  0.0035960288967874  0.8542560666452701  0.8590098654126226
  0.1853400466905112  0.6761924079359959  0.8268186204409492
  0.1482578403155264  0.8188284180034698  0.6615415497219628
  0.0234935501980336  0.8594120455420100  0.4954042045272878
  0.1654593521377688  0.6645813138231431  0.4887466622615045
  0.1643787155758094  0.8922021506974274  0.2784581961757216
  0.0098990669963287  0.8149494299068696  0.1944600595371185
  0.1723446956838985  0.6765301372256658  0.1995531443495257
  0.1612706506551731  0.8597280746519551  0.9919184228725294
  0.0060913167740145  0.5207392433937341  0.8228168805814291
  0.1899257076175101  0.3347225700289022  0.8307534784032584
  0.1760306695886382  0.5288600498307635  0.6630683355013952
  0.0068014909597880  0.4781749481449909  0.5024168038381926
  0.1796593971237312  0.3100190004110048  0.5159094573777301
  0.1669793363683324  0.4814950756428616  0.3450065340943095
  0.0123075516243191  0.5235388094906730  0.1717022389633561
  0.2056233585236951  0.3364897379298180  0.1611134419367476
  0.1660656818796460  0.5110621373134303  0.9879808530203391
  0.0291183147170759  0.1625692244956111  0.8163280410188407
  0.1711372385753208  0.0017743592992134  0.8698803599215521
  0.1651816525896787  0.1585454200876768  0.6718640337220250
  0.9784434988557649  0.1660882871765453  0.4894081938598267
  0.1734524777132187  0.0059941807777732  0.4766860181567439
  0.1653397987222336  0.1869651353620672  0.3221805360902181
  0.0092822338209117  0.1566561785544573  0.1570655284671976
  0.2055315376139647  0.1809000565852586  0.9862904112970935
