Cl O  Li
 1.0000000000000000
    11.7780000000000005    0.0000000000000000    0.0000000000000000
     0.0000000000000000   11.7780000000000005    0.0000000000000000
     0.0000000000000000    0.0000000000000000   11.7780000000000005
 Cl  O   Li 
  27  27  80
Direct
  0.6439399605354909  0.6820234380510668  0.6508871712982212
  0.6556309323621436  0.6435513270676366  0.3321859028412271
  0.7118098232051456  0.6704642057483394  0.0148419140781171
  0.6713927526430741  0.3321007526173696  0.6606824542901223
  0.6666262433899000  0.3258077409826323  0.3272291728894778
  0.6774083582489433  0.3484389231941211  0.9844146943274138
  0.6587592804731570  0.9699164686860280  0.6573438249599118
  0.6650865427646985  0.9795939100361328  0.3239844494676091
  0.6779373406151415  0.0189667720490021  0.9782656728486142
  0.3152817710874340  0.6423327567140318  0.6687022496293663
  0.2988607673619575  0.6963828842172920  0.3051966889200937
  0.3321371022906829  0.6634907153434307  0.9844865293614964
  0.3343892854026086  0.3402884409516100  0.6529133850945998
  0.3418522039282098  0.3294936541592571  0.3730741830895209
  0.3339274076033761  0.3425775670001004  0.9968264690251168
  0.3350375175437675  0.9903938245586877  0.6768974682498545
  0.3372956722536585  0.0036169803248615  0.3233832816154986
  0.3202302015301469  0.0075130542133308  0.0047782817700670
  0.9984502640393438  0.6430834371850289  0.6634180129539555
  0.9841845811336490  0.6580891924354412  0.3400585337153609
  0.0267737040600342  0.6631201523863046  0.0273500472143858
  0.0205342736001755  0.3217649894028488  0.6540806199484082
  0.0069204187624017  0.3073036009744097  0.3448804270093249
  0.0002224452517347  0.3496681816959483  0.0105210713804194
  0.9865206576059725  0.0109833186910193  0.6574628115797079
  0.9986165320828283  0.0021312363134574  0.3323855971257267
  0.0073674447420337  0.0181825329686770  0.9969956755818902
  0.8655021558131464  0.8398971847678749  0.8415953546943247
  0.8074392764188637  0.8136261212908565  0.4959680902838091
  0.8297716763050392  0.8267806406866247  0.1660204101652956
  0.8424313020497740  0.5077849623285905  0.8304493974562039
  0.8189632054441288  0.4898864435675712  0.4983768507186547
  0.8170382051725851  0.4804466629603008  0.1720319571088189
  0.8516184132136460  0.1819752655953777  0.8310966781902294
  0.8040534006152601  0.1473416876626711  0.5232523416298369
  0.8400795855575255  0.1584368660753821  0.1925249226373462
  0.5195336398822967  0.8264889837934599  0.8318636337960197
  0.4835534058803067  0.8524493622346446  0.4807848874816560
  0.5233287826949237  0.8454812563892572  0.1367328395222066
  0.4969845215967444  0.5100694730403484  0.8408802204132496
  0.4957740483251266  0.5100470441232450  0.4941577446931986
  0.4847185759782083  0.5087439402336982  0.1626180365571438
  0.5212719619286348  0.1559998164603451  0.8394093044995262
  0.4936107509307111  0.1575124627103581  0.5131375882681461
  0.5124807575885075  0.1679027091652976  0.1546415909705867
  0.1725062482973274  0.8340365977966433  0.8548099544384351
  0.1397245742285287  0.8448201296450345  0.5094473431526584
  0.1395884015522155  0.8590011161242703  0.1716967176718601
  0.1575803100326002  0.4978048634403403  0.8416729247397583
  0.1588648918471023  0.4971153159383437  0.4845365084786037
  0.1740678717720082  0.4990009239060217  0.1928688664374409
  0.1949116231349091  0.1912570923757906  0.8174843497789269
  0.1672610597997981  0.1614587982863837  0.5119654546797358
  0.1801478694223776  0.1733542214332033  0.1667294412708229
  0.6933280716286165  0.8413962785269126  0.8442320884725089
  0.8560311609548168  0.6707513687610015  0.8314616946461947
  0.8498764069950041  0.7804744814247279  0.6740336113219404
  0.6387222009031918  0.8467143610050284  0.5239649253300860
  0.8103671812652935  0.6383019483301789  0.4501945975604145
  0.8234590292464840  0.8442271803311404  0.3323498485087550
  0.6746898439426924  0.8041585272069612  0.1430151832514263
  0.8594581699349134  0.6640921665934110  0.1614967931290205
  0.8497314692274403  0.8532192327899505  0.0315159149257786
  0.6689616442619450  0.5122054832684684  0.8243492178289825
  0.8406096205443819  0.3365021644437586  0.8282560598876172
  0.8343700091653476  0.4925206267649295  0.6528099853576285
  0.6610177995517372  0.4960897800193046  0.5030083411296991
  0.8104507431513975  0.3198213051146206  0.5245300206819453
  0.7996254303599543  0.4852699327582026  0.3240031132415888
  0.6622236574866226  0.4863796783299045  0.1860349089978700
  0.8178105048524866  0.1829825830799466  0.0072635640577796
  0.8464858348838481  0.5193172718337117  0.0109089399525389
  0.6851511524134187  0.1852469320575575  0.8571370558014437
  0.8661802054587215  0.0296914128079680  0.8570152756883620
  0.8560533469594604  0.1832866689939611  0.6823628366493101
  0.6495350037029654  0.1572679915624714  0.5263669651868824
  0.8231186279197585  0.9796632919074073  0.5119368719803224
  0.8671141228950799  0.1536766118180426  0.3494368169849416
  0.6959605949241677  0.1933670502426179  0.1718598738738943
  0.8067821172448145  0.0054029059385598  0.2026656069040998
  0.0019990392890422  0.1613797910088974  0.1725002720882309
  0.3367559612538278  0.8237153283588790  0.8618500433426852
  0.4752503341277543  0.6476027425251458  0.8153839667115488
  0.4989847842453555  0.8453811764559003  0.6539374230534715
  0.3261263954194157  0.8499966751300208  0.4737584016751437
  0.4972658951957860  0.6711906759441959  0.4713928391726978
  0.5005154971095516  0.8694568780938355  0.3360515914806640
  0.3603344818150680  0.8334308550932100  0.1419139598585154
  0.5148782630793916  0.6724568571398830  0.1744861421736105
  0.5000144091907980  0.7924018070745757  0.9890231751087558
  0.3111441419494702  0.5046398532578645  0.8606549140414324
  0.4875538906921190  0.3584546897285231  0.8626061488586132
  0.5048174767691427  0.4919626163598086  0.6652495324139616
  0.3280220437687573  0.5011239383175528  0.5216843821885014
  0.4777905506886557  0.3092699166067911  0.5060482286200063
  0.4836833640461950  0.4837644827898053  0.3436533142342242
  0.3259724496481415  0.5361250731656980  0.1351960032397579
  0.4920872849548931  0.3150491886321704  0.1398525844836088
  0.5171208309064578  0.5265332293587153  0.0065351404408939
  0.3681805542602851  0.1824706248286257  0.8514402727988051
  0.5081969963633867  0.9881407102823336  0.8258415100391511
  0.4920750988465029  0.1423218207141296  0.6858168898832426
  0.3127742464950543  0.1642763500266858  0.5110919414749990
  0.4762843719828795  0.0052147044498051  0.5251236987332181
  0.4921113737738039  0.1452050499106972  0.3443433475611399
  0.3342627684965647  0.1856354705366944  0.1331972992794293
  0.5341030433844399  0.0074214300373893  0.1802146657376374
  0.5200565089515949  0.1166671071179469  0.0003799423672046
  0.0216599438548413  0.8412513407593487  0.8144523164581466
  0.1680953021568989  0.6467420227099482  0.8516239146182657
  0.1759856049124688  0.7948867205655072  0.6630682190121254
  0.9840550860196370  0.8204307470509301  0.5280225755407251
  0.1446933688324384  0.6921700534303756  0.4853720868542323
  0.1453961955488934  0.8629396177734736  0.3341228463087014
  0.9927888681316179  0.8607555108783520  0.1842813846801019
  0.1471786669347643  0.6873799006977999  0.1903064436291906
  0.1138047621680979  0.8312602703250064  0.0225764960302211
  0.9980548218489362  0.4832759453481312  0.8117130736220096
  0.1500540520831571  0.3560642691843777  0.8380258370712602
  0.1543341797427363  0.4914020553738619  0.6502600927837527
  0.9961456406187397  0.4890246711317152  0.4846544424777415
  0.1739350796274245  0.3245184223751679  0.4893777133131063
  0.1853510543071004  0.5275344740317941  0.3407080816323426
  0.8562795189449695  0.3349508242632012  0.1846183245042779
  0.1425142821281486  0.3373013869212666  0.1983068666997811
  0.1492402548580730  0.5001451630469875  0.0262367945940483
  0.0139796553677970  0.1882546741323771  0.8319332687011064
  0.1918394282874744  0.0175737791628800  0.8403613593995349
  0.1926351690197279  0.1817034465530806  0.6582202935995738
  0.9925809717560994  0.1813561627066664  0.5277226191385239
  0.1709058600426348  0.9902120963074308  0.5336573348953449
  0.1592505153767240  0.1521601801822007  0.3500534097782369
  0.1468692167039334  0.1850862049801194  0.0053753643912814
  0.1670403029807802  0.0177846233823093  0.1668152298544731
