Cl O  Li
 1.0000000000000000
    11.7780000000000005    0.0000000000000000    0.0000000000000000
     0.0000000000000000   11.7780000000000005    0.0000000000000000
     0.0000000000000000    0.0000000000000000   11.7780000000000005
 Cl  O   Li 
  27  27  80
Direct
  0.6543799181654421  0.6696762062458455  0.6564556514798272
  0.7011592708986480  0.6558044068422756  0.3425546975933024
  0.6601352835562552  0.6635284562619514  0.9812444278736457
  0.6433201948504808  0.3146853952549652  0.6686732980043119
  0.6659521057993483  0.3302509625112404  0.3246690531926422
  0.6662117792186654  0.3369923095755873  0.0027909812822047
  0.6556702691508597  0.0134575829142478  0.6585030391456015
  0.6830032649304483  0.0051017185034336  0.2886574025125432
  0.6897986600170569  0.0134000177219978  0.0005697786813543
  0.3338129403197527  0.6791759862306380  0.6455917560927170
  0.3316808369336914  0.6538618763882305  0.3428204438241095
  0.3455901258268601  0.6613323656854894  0.0004629778536560
  0.3317508564501723  0.3315031964832053  0.6655217112679966
  0.2997097718639444  0.3359257012081699  0.3462925130654628
  0.3351292626956431  0.3482598647424449  0.9983054262245287
  0.3314867296357626  0.0069667127553175  0.6734797258716813
  0.3336919294294599  0.0338519980988122  0.3359620939250533
  0.3468502746964670  0.9623870360876912  0.0196536599547721
  0.0099566247630320  0.6603702704038169  0.6457444670589881
  0.9997561811055125  0.6378273463859843  0.3346541722717242
  0.9968392213156976  0.6373616427155130  0.9853311491389557
  0.0126666175230764  0.3475443660926806  0.7110583643432773
  0.9874303181082239  0.3426869266087944  0.3277337582392391
  0.0025395660855336  0.3313442912492141  0.9699171390147686
  0.0062431998526034  0.0158759561036146  0.6693301737804916
  0.9919921033972988  0.0162664113138781  0.3547860281863449
  0.9875055918718130  0.9755619854334474  0.9862174734455986
  0.8134367295313428  0.8353482931095582  0.8092063339381720
  0.8346114086350443  0.8217337784861194  0.5051597717420522
  0.8358785209951599  0.8316183722923350  0.1508656842920794
  0.8301475683065369  0.5006996597379061  0.8313759824764126
  0.8385533110586822  0.4920264703677368  0.5221941699134394
  0.8374304077287515  0.5004501886418926  0.1360696434651255
  0.8092738577402849  0.1715257266526995  0.8270469585629856
  0.8298418224907153  0.1824450668087144  0.5147397938093342
  0.8644102087920754  0.1828953050525909  0.1699800305201804
  0.4994261006693066  0.8404655679544010  0.8291492849300405
  0.5071556561047336  0.8599439893526862  0.4787066048911504
  0.5264601116965322  0.8175624047589753  0.1795056806819210
  0.4953105968078718  0.5114274836622281  0.8292775427087117
  0.5072141170366782  0.4935915958303768  0.4902867276654037
  0.5130166884154745  0.4922264278074010  0.1693855022752990
  0.4732165345299780  0.1409006192789147  0.8554031016224271
  0.4868750567940152  0.1768810759506594  0.5052967338838591
  0.4960675525174085  0.1823034488447652  0.1665329002913465
  0.1543371505119791  0.8421741332244375  0.8316478824895297
  0.1657124677187287  0.8369426895235805  0.4900324388056081
  0.1663605581609528  0.8181307389436294  0.1685217865397662
  0.1701218450495223  0.5228792676869906  0.8630690949642574
  0.1746224866156598  0.4869076975627263  0.5088937815856788
  0.1733696858479559  0.4976213515935715  0.1731645318947721
  0.1644718024526525  0.1615247676569808  0.8596443531671173
  0.1592287394391446  0.1503917252646290  0.5190393038589193
  0.1691861158910693  0.1683811641350077  0.1788230156996132
  0.6524370233427074  0.8400932641246477  0.8105485062483053
  0.8167955610811105  0.6552895538841444  0.8167686846305714
  0.8036331875158148  0.7932698632654334  0.6611295706004823
  0.6677238283088819  0.8440408345056760  0.5294546613893705
  0.8448432053168544  0.6658452743308367  0.4947059530721638
  0.8741854919914694  0.7881109694191784  0.3189425741418169
  0.6734349836320471  0.8263032047637346  0.1824022700637667
  0.8268143235358477  0.6687521672495109  0.1256252578957518
  0.8533456272279221  0.8340235295256965  0.9753341045763099
  0.6572661635250496  0.4883086142026739  0.8562683558035376
  0.7961361802750492  0.3328376360800412  0.8212305006885819
  0.8466235917041139  0.4839460278844115  0.6679589734314357
  0.6708342413832942  0.4876179331091993  0.5191376429196491
  0.8874035734808342  0.3359845467515091  0.4887219260860432
  0.8601283908666316  0.5130692480058733  0.3151627348141451
  0.6760827294417332  0.4672695612222513  0.1457894312888523
  0.8510540720548355  0.3441296241917939  0.1643221944818983
  0.8283692871605943  0.5140869702407953  0.9779173520672951
  0.6744303174352754  0.1371594637604349  0.8408118359989195
  0.8278488877013022  0.0158709472993043  0.8290406220897775
  0.8033982911673777  0.1784688934855675  0.6567429359487192
  0.6722571416008359  0.1747749439550708  0.4959410009876116
  0.8420744081314656  0.0141767606756398  0.5092286768966531
  0.8217598820472224  0.1598187226037129  0.3266906718949935
  0.6826338760502101  0.2057854724314277  0.1512441419041429
  0.8444258007404345  0.0021919892338722  0.1590354780751290
  0.8431675141996845  0.1887151434587241  0.0045208393475283
  0.1825212913073159  0.8164468697736530  0.6513172432509988
  0.4817617090339359  0.6898852678372102  0.7990997181438781
  0.4900727564122454  0.8580894336944277  0.6867935148701302
  0.3421353438555487  0.8247540710380187  0.4541624060894583
  0.4909676459134273  0.6590458307032346  0.4849173501729017
  0.5261111679483107  0.8385607294170045  0.3266038914187999
  0.3195701933476624  0.8115411716811253  0.1236473634361292
  0.5045470192010436  0.6542363664301203  0.1726801442076163
  0.5218280544897488  0.8590720145935269  0.0102896591787147
  0.3260763809084073  0.5169678715262915  0.8307050582629859
  0.4609783214172468  0.3367918055828890  0.8564756411023998
  0.5072246837286710  0.4824499705311190  0.6488190100601989
  0.3460139270980496  0.4882390197829974  0.5351622944818714
  0.5128167309758103  0.3232299827204792  0.4904669282250201
  0.4988697906514030  0.4853045563001583  0.3333778899662585
  0.3431644424906621  0.5051846334503992  0.1792818570931006
  0.5154388900064183  0.3396331121374698  0.1456397972137361
  0.4731788021279194  0.5205376320618156  0.9850909074512381
  0.3233889593969857  0.1391523175790281  0.8319183250278891
  0.4977702069175944  0.9878997648208970  0.8516867029321221
  0.4888177896751100  0.1715394512066671  0.6893504114199243
  0.3218001904549442  0.1404087114268636  0.5232092201113056
  0.4942336039328064  0.0218569049334112  0.4820819140027613
  0.4657758424944304  0.1974173001397014  0.3396407197278900
  0.1246884601336310  0.1558204948535044  0.0056515101829054
  0.4917560183010729  0.0192893430084374  0.1668046586055288
  0.4685462186108070  0.1765205533751968  0.9972426095687855
  0.9774111647162471  0.8500389908998637  0.7741330136041144
  0.1710160058133256  0.6900065621253725  0.8848058734994834
  0.1528642002064064  0.9837564700129678  0.4860226423495109
  0.9912173720624629  0.8291094914387227  0.4974544265817659
  0.1752717511347720  0.6534111928048447  0.4995350932545061
  0.1518496965615743  0.8330011919540421  0.3268607915875364
  0.9980261820529117  0.8445931364679964  0.1529975953724436
  0.1397515933312723  0.6337144335907853  0.1650766299746666
  0.3040279456875092  0.8551553750656880  0.8388249843852614
  0.0048870597597506  0.4871762372868188  0.8624852953530088
  0.1605579260540416  0.3463750259975557  0.8547108011125552
  0.1362462855683632  0.5082226181264397  0.6838696585646936
  0.0095385977234343  0.5183230396530136  0.4968423276689732
  0.1765735999766110  0.3361377030572896  0.5395010348936825
  0.1529533592004337  0.4793614600634808  0.3306952862186191
  0.9829860954911677  0.4872041317342634  0.1238201551657277
  0.1656233896955213  0.3249077183508508  0.1821154916624990
  0.1964688389128722  0.4929213193835089  0.0198839257844482
  0.0031570941550569  0.1628593691954565  0.8384274072954443
  0.1296365464503595  0.9908610903732273  0.8694797167148531
  0.1697266467204512  0.1103437196995163  0.6754196652594905
  0.1486496791536253  0.1890114561740313  0.3493215504659077
  0.9932508884146587  0.1347701768077676  0.5188395893317148
  0.3423125080094200  0.1659552075222926  0.1463134035855711
  0.0189002421221166  0.1756686188939548  0.1827211938805222
  0.2068493992334849  0.9754505797066614  0.1637308443416967
