Cl O  Li
 1.0000000000000000
    11.7780000000000005    0.0000000000000000    0.0000000000000000
     0.0000000000000000   11.7780000000000005    0.0000000000000000
     0.0000000000000000    0.0000000000000000   11.7780000000000005
 Cl  O   Li 
  27  27  80
Direct
  0.6691349700437115  0.6408235741132555  0.6868147742672969
  0.6370730354713677  0.6728679785030980  0.3277896731473096
  0.6585874681352357  0.6558530942992991  0.9963994437868690
  0.6683474883350846  0.3384071771908348  0.6783628376624171
  0.6659781202041049  0.3218338673531865  0.3243311057901694
  0.6596008989167047  0.3178230790045459  0.0041400084071673
  0.6449496744010847  0.0172886691359522  0.6641326209247013
  0.6652941596886791  0.9851341747951468  0.3272204887690469
  0.6545627325628730  0.0086147560890802  0.9906333741169276
  0.3609503940982335  0.6876825211623918  0.6747361546405257
  0.2989339119968423  0.6651197592936915  0.3237367597296327
  0.3286196364039276  0.6579082146783708  0.0228010306440534
  0.3422792112886230  0.3583875569441873  0.6560879675437578
  0.3197041418553030  0.3247622580245355  0.3145222197005302
  0.3301471509207389  0.3293494169117020  0.9912467963965576
  0.3668125600004527  0.9971570479101924  0.6574283584958540
  0.3320701876499009  0.0036249875124865  0.3401237961961746
  0.3178559221636991  0.9893991248540924  0.9811881766883248
  0.9929236688829095  0.6569394393040591  0.6546140961951090
  0.9883015957577667  0.6549375167536406  0.3292098405996808
  0.0239637308332287  0.6994912245611328  0.0140128361411210
  0.0164341986262573  0.3233207750038339  0.6379256863370182
  0.0105047105479940  0.3316796963793904  0.3404835900342584
  0.9744692519165158  0.3410936068097130  0.9801220769188699
  0.9978998267707511  0.9757125341818649  0.6730920016576943
  0.0186816575969113  0.0014794405981351  0.3427615825950169
  0.9861699427718909  0.0095339026766580  0.0128821305135948
  0.8299489696569793  0.8532270384994025  0.8469816955735889
  0.8535537450065620  0.8394858855136900  0.4945796026647113
  0.8397223095566964  0.8404231227536632  0.1773502420139842
  0.8472687899684016  0.5144424561342987  0.8299313461506880
  0.8352826795033297  0.4842671821502911  0.5018317136607859
  0.8478812532498836  0.5075575882917357  0.1790091114433265
  0.8470320312911072  0.1779062512525869  0.8341883060344323
  0.8434767645323397  0.1528717235298313  0.4907550269590623
  0.8552392335929360  0.1821917533503349  0.1744006167451249
  0.4847734009650980  0.8283557985562635  0.8507821419749173
  0.5110053555361203  0.8232323699291108  0.5280725345365838
  0.4952374624436996  0.8370771655642543  0.1573836880281242
  0.5151958788621629  0.5050259141523304  0.8376287561706272
  0.4911566140931684  0.5001079084951829  0.4848326997376811
  0.5081420249185352  0.5018274453113114  0.1563222921572360
  0.4946658084554310  0.1755526117033665  0.8272008481630964
  0.5010035969535555  0.1769792163359173  0.4947913818440762
  0.4975639160401494  0.1589417010412419  0.1721459032950783
  0.1556892847618300  0.8183563881274748  0.8230086649352464
  0.1756278026013107  0.8285797638440187  0.5089745545354486
  0.1622786394759320  0.8516814674897606  0.1607027831480417
  0.1604592352748487  0.4972190720693396  0.8469896307139362
  0.1592187825571747  0.4878661326663776  0.5131349567165003
  0.1481098492264386  0.4850408988195405  0.1486714909654834
  0.1553283370895631  0.1653446001998927  0.8472275229827084
  0.1909090205809142  0.1750469084478804  0.4952925507336498
  0.1639789659650468  0.1651662417264283  0.1710105102161831
  0.6656102292840342  0.8467064583754260  0.8706321384655771
  0.8254732266179513  0.6756633341174036  0.8482106706775469
  0.8212941606629199  0.8697279199386790  0.6560556197012205
  0.6535189377239535  0.8386074330889411  0.5001044846167699
  0.8502621192372848  0.6686104923090245  0.4799577300712936
  0.8278119877790211  0.8519002506450442  0.3448913580700070
  0.6633387548742750  0.8395275854859220  0.1555005800345098
  0.8785768052369538  0.6943657716634832  0.1663128666453066
  0.8490903095321539  0.8185946042795266  0.0139508782818932
  0.6681833199978020  0.5175714115264610  0.8332343078347465
  0.8541289617109047  0.1783843434584980  0.0085361328491405
  0.8473653071856844  0.5043054357971443  0.6712114138808483
  0.6802883361118501  0.4657376982754498  0.5255878234727018
  0.8379169841569176  0.3316267414631967  0.5233820163978558
  0.8299288888936520  0.4855904477739851  0.3385334483231456
  0.6708150335851543  0.5273875445044783  0.1600440754070624
  0.8721678029027555  0.3417532355937684  0.1946651231053944
  0.8295483260402721  0.5054295941747827  0.0028357064025201
  0.5068348320025851  0.1567185560895915  0.6591554255982301
  0.8341581567570018  0.0040927840888760  0.8317760233689224
  0.8247069187787198  0.1726350103937650  0.6736984730985063
  0.6802263124638314  0.1414178646278097  0.5221587497366986
  0.8416678764164868  0.9960229415082317  0.4457015672513445
  0.8112905397514981  0.1839713097866906  0.3185603761862861
  0.6794698830646236  0.2023795196160744  0.1581513318858836
  0.8379077534834527  0.0024007599554281  0.1930466581151662
  0.6401623556472045  0.1481303253521686  0.8367053550624114
  0.1275527345658708  0.8456945660395346  0.6572663763707078
  0.4560999332625936  0.6652596363850136  0.8799701792376833
  0.5375122060405946  0.8032699049696541  0.6983893910257992
  0.3463044326859051  0.8316346309360014  0.5450318727579532
  0.5243549336369507  0.6714589242957537  0.5044237110609929
  0.4826629370306464  0.8419285322366503  0.3382458804563841
  0.3068304090201322  0.8583039898759510  0.1369472502532173
  0.5023115995777044  0.6577469208051936  0.1522764738076501
  0.4532976546431891  0.8318247504210516  0.0101987815813787
  0.2804710873494574  0.4187653111076783  0.8376459219844390
  0.4912119576485482  0.3352093561163748  0.8262691979096944
  0.4808868016114301  0.5253895490388235  0.6561801933075875
  0.3104596831082592  0.5071969847454534  0.5001890991235322
  0.5193250667921555  0.3412706090219446  0.4972765382474673
  0.4862720898700363  0.5088849834272431  0.3076953876931077
  0.3364685428278400  0.4713450490075441  0.1350914901540133
  0.5129016921374306  0.3383650116363885  0.1859306388245849
  0.5255402654689996  0.4461759983889302  0.9817114594679057
  0.3303912576999363  0.1885594200809906  0.8569662073715221
  0.3206394560383041  0.8430878321930241  0.7956050626007330
  0.4727164410326415  0.9900635321816891  0.8576209374209752
  0.3329507048305563  0.1938558023793815  0.4678327951355579
  0.4946518409890038  0.0129857608422707  0.4961087365979200
  0.5152638133800324  0.1547608840922310  0.3216150408512194
  0.1700971919637463  0.1758633372246103  0.9931388383814923
  0.5264145478965253  0.9939511544245423  0.1441734202228767
  0.5068741028502209  0.1594714829942863  0.9853926333212303
  0.9990516468047269  0.8437388778272609  0.8204075583178042
  0.1251443384997146  0.6595439062105258  0.8309627524541674
  0.1893237536268319  0.9939664690531065  0.5079220553333934
  0.0103451183272030  0.8156911526206969  0.5002078438683316
  0.1652709970949768  0.6729141318704227  0.4915996740665163
  0.1940021463852848  0.8368805684136146  0.3386693983297041
  0.9942858998159115  0.8561381014152999  0.2182255466883941
  0.1672506223058740  0.6502657433597121  0.1690413201196963
  0.1500074611181620  0.8327107331320484  0.0055315134544743
  0.0158951594311977  0.4648582742008625  0.8593493405418793
  0.0023841134964441  0.1558708320909826  0.7964191432236869
  0.2001353621070124  0.5232062518519005  0.7002371451351890
  0.9984522710645904  0.4520643583513768  0.4994403619522120
  0.1784508097506014  0.3507973522897535  0.4870886682354357
  0.1439293662820596  0.4906518932385289  0.3308650460994241
  0.9784554985157219  0.5250062736629780  0.1507451030555425
  0.1633868567234089  0.3350409772964591  0.1639802491451944
  0.2020943903656057  0.4993350420195422  0.9938609374182450
  0.8267079205289748  0.3388259380284875  0.8218857616053160
  0.1770407231653037  0.0131610310380586  0.7961875666788640
  0.1938288081026522  0.2042523544369182  0.6715105200894410
  0.1987325831382078  0.1711529609923096  0.3203843653600444
  0.0282163486567577  0.1658660117944332  0.4806901516224104
  0.3193395504961420  0.1690434484649914  0.1657834693036566
  0.0074139797086548  0.1748754729795148  0.1628047046609972
  0.1477989111567927  0.0055910374593653  0.1541620412899180
