Cl O  Li
 1.0000000000000000
    11.7780000000000005    0.0000000000000000    0.0000000000000000
     0.0000000000000000   11.7780000000000005    0.0000000000000000
     0.0000000000000000    0.0000000000000000   11.7780000000000005
 Cl  O   Li 
  27  27  80
Direct
  0.6745129352285045  0.6598872534921945  0.6606343705266736
  0.6504876379259370  0.6652298701287301  0.3216560249896257
  0.6887934753307682  0.6901888419551965  0.0034004142319248
  0.6429231819922212  0.3397603722951931  0.6635230854962874
  0.6606947789930974  0.3204493378242801  0.3250765765468379
  0.6582698648796881  0.3391037394314729  0.0088310259069521
  0.6761033640723534  0.0124048780870766  0.6707098530407285
  0.6558442220288999  0.0050039465195916  0.3201192797993494
  0.6833026820938739  0.9934296207499733  0.0111747522239995
  0.3032813817998792  0.6591111076983489  0.6976271041457043
  0.3436310643971155  0.6861830535546827  0.3281244194201972
  0.3335787395375430  0.6863512299475488  0.0088930008459623
  0.3430666168118151  0.3551276217709063  0.6755212201281097
  0.3252865381175578  0.3330389238098289  0.3327188251957419
  0.3282277626638558  0.3250721643575985  0.9908139589072164
  0.3424698618693873  0.0007640793861459  0.6894401445488426
  0.3345409562754452  0.9986459184794231  0.3200825595325392
  0.3329466003468329  0.9670946915387838  0.9685434106060675
  0.0059963068943793  0.6338874422617339  0.6558521529344451
  0.0131204903209077  0.6849310827378824  0.3268504650258028
  0.9957089237447300  0.6918408086221449  0.0080308779582765
  0.0151064578243050  0.3311686395698110  0.6440558785565539
  0.0382647486866133  0.2924611464130241  0.3297847868097071
  0.0051387345035117  0.3148485862140050  0.0233398486863898
  0.9874683779123133  0.0156850464853425  0.6427858917323329
  0.9904615768687833  0.0043641606470802  0.3289845117115409
  0.0094128769645583  0.9868456556560687  0.9947270730414683
  0.8407948133366439  0.8541568574293755  0.8281293939434868
  0.8050411761740546  0.8475653468671948  0.4932802768218411
  0.8259402306069255  0.8398448601635932  0.1645313494487696
  0.8353401330854109  0.5092480471035495  0.8652961338544138
  0.8270739840267182  0.4850562737953333  0.4943631400813470
  0.8384979950602660  0.4992233737789620  0.1879823510900701
  0.8200100897014270  0.1753764097193515  0.8330796259869416
  0.8378555725754325  0.1716212057636246  0.5031068550356215
  0.8358517067253373  0.1813903554234134  0.1723960148184988
  0.5067539469389215  0.8391209000631527  0.8128948961269471
  0.4774121460892259  0.8411001507840080  0.5053940377844351
  0.5108658071134625  0.8403938423222987  0.1595195795822149
  0.5109672635507572  0.5103989258517445  0.8591420276611601
  0.5025996175693600  0.5039755916824296  0.5005947353492143
  0.4952507869289529  0.4655505247453426  0.1669230452833280
  0.5161782216341873  0.1819279611819276  0.8411974365036359
  0.4881456784563486  0.1827329325876461  0.5063458902573943
  0.4833075505130010  0.1411407628808866  0.1588397890640124
  0.1529223648120353  0.8339236260482802  0.8166402823707650
  0.1749958301376252  0.8351107392383661  0.4986336220920094
  0.1763164642096735  0.8339976333776394  0.1820319472368997
  0.1403418070729018  0.4770518629118644  0.8342569417078235
  0.1773640241917168  0.5017571126742740  0.4962804886104132
  0.1620799216266556  0.5014138368834433  0.1747052013876116
  0.1590074737454088  0.1617062580213108  0.8323753417957290
  0.1859553115775897  0.1456933877133793  0.5111757186917054
  0.1744899244550894  0.1466420013535438  0.1495823648644373
  0.6873989958710003  0.8527084514035753  0.8221292942496223
  0.8201752701739579  0.6734738736681887  0.8676544899538914
  0.8217180881757241  0.8547512642180273  0.6579101072922122
  0.6610616172925097  0.8141678795919466  0.5231126393837076
  0.6537851745650646  0.4857131090861033  0.4850585807432562
  0.8236030888622532  0.7945090552069952  0.3412657810577369
  0.6734819337791241  0.8389535333784853  0.1515384882948679
  0.8181137531001164  0.6747094883793757  0.1515663726209600
  0.8500641908535019  0.8237680229079658  0.9955367938918397
  0.6718958773595483  0.4902188922993023  0.8892153998683638
  0.9955951506437194  0.1488392761282465  0.8647291761736974
  0.8247451013056726  0.3332736177312164  0.8554233617878988
  0.7910578394661165  0.5028613927156348  0.6934656898294042
  0.8249136825526378  0.3239833902282424  0.4796203780538663
  0.8393970950440810  0.5328681259380871  0.3397489546891482
  0.6641332048587955  0.4697256231302005  0.1883587641889319
  0.8338126995394193  0.3586642652411043  0.1880238081498426
  0.8420059748602305  0.4949530941953493  0.0152486117806410
  0.6673773007568100  0.1550522481075441  0.8632624707426070
  0.8279518696557279  0.0242728584518063  0.8215657373433405
  0.8302383236671629  0.1955458360943910  0.6711405773170168
  0.6700070305590755  0.1748474678385633  0.5258994930619271
  0.8137873202529251  0.9929174917008292  0.4953796477539709
  0.8517780192268297  0.1558909843451476  0.3414184920240081
  0.6779085680159022  0.1392381915264463  0.1756119935993142
  0.8684469960881523  0.9822636573934999  0.1628675104353579
  0.8016685795849094  0.1306197080664502  0.0148526796535148
  0.3096029558913249  0.8466622793132060  0.8080920309756522
  0.4981180446313014  0.6732551309983150  0.8244915369484536
  0.4658160720634585  0.8181722914885227  0.6733949263983738
  0.3359776215323647  0.8504340620443009  0.4715119601522767
  0.4845220318402023  0.6554821979789112  0.4793248345613477
  0.5373295406563571  0.8368044058775466  0.2993427949450539
  0.3300830470594932  0.8189120408988373  0.1513123772803863
  0.5252599492760011  0.6754901685391338  0.0910331747260271
  0.4979138362235941  0.8658709869105106  0.9869392850371121
  0.3078963136782604  0.4803870104968207  0.8467670953190817
  0.5252116096965399  0.3627918742401096  0.8379637858413842
  0.5158613423306335  0.5514231561065968  0.6529694702909116
  0.3359128246337652  0.4640141034383458  0.4773237217191280
  0.5066415999263547  0.3523783385531055  0.5082374900657426
  0.5157782257840391  0.5121891501936178  0.3140335939488844
  0.3344676979261696  0.5041223512934404  0.1818115244225138
  0.5023711988865122  0.3024911030836080  0.1501104666729694
  0.4709112013890674  0.5078459968721237  0.0182104383399193
  0.1841808765455907  0.1152088861682954  0.9972024576687087
  0.5092629087633540  0.0011484503983978  0.8168945307451509
  0.4813747365573400  0.2083095093426561  0.6714071332560225
  0.1346346901693775  0.9801217691899251  0.4822324157319907
  0.5286589828378333  0.0003094796300797  0.4904091730055489
  0.5191497292671160  0.1944114146653342  0.3513212637792843
  0.3197395511316751  0.1354175429055610  0.1403298697635217
  0.5225258480869257  0.0082709084506200  0.1906543071748969
  0.4770540931237693  0.1368927300300326  0.9941635610486881
  0.0055771703015156  0.8826406914717490  0.7994237808254946
  0.1454214912146209  0.6449229957869645  0.8231699312265669
  0.1472183855277809  0.8187569008079700  0.6541566644518174
  0.9419564816652076  0.7583451389001346  0.5008137614169574
  0.2005908075114502  0.6646838029195397  0.4737586979765662
  0.1245676589846465  0.8533467443765954  0.3380595592607156
  0.0035894214400813  0.8461829320595868  0.1620908889379456
  0.1868351405062763  0.6566191092606790  0.1951171353681559
  0.1591004990960847  0.8208657048406143  0.0123664959328466
  0.9875016581844483  0.4827622085268309  0.8250084546624914
  0.1671330372181054  0.1758679430813607  0.6537751704340089
  0.1583502437218921  0.4919954325726180  0.6760574493826860
  0.0048504081678985  0.4903059359306605  0.5090810035817182
  0.2186894658964784  0.3062206797748467  0.5055167085765352
  0.1541831412054962  0.4856295876854094  0.3312413304029040
  0.0001756866137668  0.5335175119134291  0.1830719971754002
  0.1613783398365561  0.3098045292330279  0.1581562131599811
  0.1467113766178244  0.5049442456005113  0.0026247101402276
  0.1261100721323135  0.3145725769317796  0.8696915538401325
  0.3537108788500332  0.1793673804598293  0.8450903515812535
  0.1734638622257211  0.0049968236177813  0.8565216499885893
  0.0174928665173598  0.1733302771012851  0.5257846359539442
  0.3567283779086470  0.1171788758516284  0.5152949067254443
  0.1913011670469201  0.1342549739952476  0.3324045572011289
  0.9937453876887742  0.1563936714375936  0.1668936731184208
  0.2063977310718144  0.9903149782153918  0.1691026481765944
