Cl O  Li
 1.0000000000000000
    11.7780000000000005    0.0000000000000000    0.0000000000000000
     0.0000000000000000   11.7780000000000005    0.0000000000000000
     0.0000000000000000    0.0000000000000000   11.7780000000000005
 Cl  O   Li 
  27  27  80
Direct
  0.6846342604230206  0.6602462852182083  0.6704907660808669
  0.6954859697017407  0.6497113742722219  0.3403918425921924
  0.6561208720313954  0.6504168325403226  0.9908826960108510
  0.6544703223537945  0.3060915789132858  0.7081437357651019
  0.6914790477097489  0.3627918003800084  0.3298647655730283
  0.6447046341965550  0.3349842346251732  0.0175626374574065
  0.6615771312136159  0.9990775071766146  0.6685353612664628
  0.6690245033418025  0.0103944784236576  0.3116545901263368
  0.6668179675295774  0.9985593749002787  0.0189542171496881
  0.3687838935627620  0.6865712347758489  0.6731647464361904
  0.3529073781154884  0.6679751524016661  0.3148565811980201
  0.3311747493347807  0.6517620007707909  0.9913629548187780
  0.3252761060782109  0.3180910293209310  0.6730317923499670
  0.3377867252716833  0.3485322722055004  0.3317394222373191
  0.2980637973056359  0.3521211013691034  0.0070976682200040
  0.3388697909582388  0.0113604223496120  0.6548592683345141
  0.3487777853313965  0.0196317775789883  0.3275773803971650
  0.3367489830015490  0.0040828998003739  0.0238656553142428
  0.0293579160301020  0.6938629000174293  0.6527998565019895
  0.0033381341060225  0.6531095171550355  0.3552946029597324
  0.9966903020127781  0.6828151603838084  0.9929083196058632
  0.9867005612711184  0.3339383952730521  0.6568945913481281
  0.0060132493179932  0.3331526746797572  0.3235974216881893
  0.9924638826775681  0.3166542426077819  0.9971940178048155
  0.0435197124250292  0.0222608216596231  0.6587089449943222
  0.9766291817003266  0.9745537280454120  0.3292905812466388
  0.0123814980264166  0.9931774157759090  0.9903844243584260
  0.8177569278933740  0.8457730648801334  0.8491599245811147
  0.8155648858579051  0.8240082704412333  0.5184667562454284
  0.7898056389332727  0.8247864000201653  0.1797199467677930
  0.8196255724742894  0.4911188900728547  0.8238701464700774
  0.8333047827828028  0.4901284954896383  0.5076676375142124
  0.8498225061526118  0.4969525947318904  0.1578725823353322
  0.8198987680205244  0.1600921725660742  0.8504677652636239
  0.8055852323091642  0.1825773947533982  0.5177591927360110
  0.8422454187709966  0.1723241610470280  0.1623322121812065
  0.4969596487932748  0.8262271947888979  0.8600670179006246
  0.5046852366585280  0.8472430091440186  0.4929398550884074
  0.4963519223047550  0.8192740685451861  0.1625773108529472
  0.4972296864775348  0.4853617838094144  0.8152355801809851
  0.4993847248483238  0.4854777745088754  0.4931970993831283
  0.4865182591442362  0.4910467450723522  0.1648185629041907
  0.4869103198540374  0.1596001938645558  0.8343605639505461
  0.5091727204664370  0.1686074182307385  0.4838048486471204
  0.4888629716605662  0.1828307929341754  0.1485401892779118
  0.1717148449848718  0.8438870115729463  0.8443488004061931
  0.1838072701364305  0.8422906718592471  0.4798707194221900
  0.1693779663953641  0.8238583934536573  0.1733274219954379
  0.1706219818291123  0.5141601894869753  0.8154637559513733
  0.1839487464014450  0.4971510946967970  0.4896882289041449
  0.1593365827178262  0.4986495811746855  0.1604847920764489
  0.1536097089342541  0.1655168834926036  0.8479907059422196
  0.1800021071848449  0.1729865833243688  0.4886295759197798
  0.1580972129848680  0.1521429534176978  0.1662299652653112
  0.6741916157262741  0.8454410035478543  0.8415697199266808
  0.8300178533210780  0.6674039437529067  0.8386316127569476
  0.8234640751609555  0.8729403943622717  0.6779203651140925
  0.6666861470348322  0.8536288538237347  0.5002563378862771
  0.8444968933882484  0.6590928963745972  0.5165264120035195
  0.8033217740105719  0.8358597264328644  0.3537511776768170
  0.6398096242522502  0.8488475269105243  0.1760994175282117
  0.7983355909230957  0.6707570263744639  0.1918540921342887
  0.8011420395397232  0.8336705993469110  0.0122624900158917
  0.6665863504993449  0.4858732764785211  0.8030148162799354
  0.8421262297241507  0.3229174367381027  0.8681783507517296
  0.8220867615149997  0.4371695307549204  0.6478278028225801
  0.6739470838502726  0.5287760297543128  0.4966567800890417
  0.8093975004501932  0.3360150336475038  0.5000305507550750
  0.8147418984447660  0.4935112539166770  0.3352952962772358
  0.6382732029452534  0.5091157883800137  0.1279464353213537
  0.8243740252346332  0.3362055984720633  0.1542417293162177
  0.8729929540244219  0.4891984646526335  0.0089249019198178
  0.6514808796842649  0.1812218015298718  0.8195968304807196
  0.8281647551375773  0.9914831829735739  0.8765518671175671
  0.8356155280401981  0.1783077224509345  0.6782208073412129
  0.6650626820964771  0.1373952521702051  0.5069293860640652
  0.8402878682298660  0.0319882106190650  0.4800460212472042
  0.8083110339892035  0.9826499104970180  0.1671838622514721
  0.6766867720259189  0.1727714033705694  0.1824830759957912
  0.0089656324124919  0.8383196505474266  0.1802504675795686
  0.8253450273064911  0.1784676600628789  0.0018745369961665
  0.3389793242348154  0.8469998537719546  0.8568489136357877
  0.4887399769851865  0.6591111552944775  0.8403363723984504
  0.4971277037299110  0.8194758478282974  0.6711115693567956
  0.3386104009367913  0.8519332438848770  0.4761641586864988
  0.4999584840779091  0.6687405290764691  0.5121839874194044
  0.4617639815503966  0.8386174306159316  0.3183173145245917
  0.3226252024065499  0.8084541807986744  0.1974793981456889
  0.4751825063043447  0.6454057104403269  0.1739248247044246
  0.5089398483884964  0.7971576178355990  0.0125705118708533
  0.3439962155057267  0.4570909030232940  0.8398197785676919
  0.4796659415712601  0.3236719430803385  0.8172880285230013
  0.4752704811001314  0.5040512660243149  0.6662689880183552
  0.3417920278472779  0.4544392706142540  0.4935817512629116
  0.5316864545037070  0.3181001790235761  0.4793080531949266
  0.5059987048130181  0.5061946041116330  0.3333558831997555
  0.3180852697500714  0.4611717108884155  0.1683803275712528
  0.4940627962562644  0.3464569496068716  0.1257507799630484
  0.4848426489978862  0.5041775805033093  0.9738296637969571
  0.3263133220380161  0.1449916409710064  0.8367318753812027
  0.4888178709138997  0.0025167425923650  0.8400644723853332
  0.5231386484481033  0.1503332353509412  0.6667797924354929
  0.3311867532588261  0.1812803231899314  0.5051624408329040
  0.5110157782682743  0.9997454925604602  0.4766078787793758
  0.4741200476914457  0.1893240251637414  0.3267514375491006
  0.3326630132466610  0.1789935452952171  0.1437720707296927
  0.4754946488149362  0.9815777682801304  0.1636631599114356
  0.5417072007435310  0.1364981460928292  0.0145285355852126
  0.9965480973266769  0.8648845265227765  0.8621695062093193
  0.1800660741325407  0.6827713551702598  0.8444153584201246
  0.1830054565926869  0.8593076613043624  0.6553744856613347
  0.9743424291089935  0.8598802869424697  0.5446286305718546
  0.1880366189706000  0.6717243442740178  0.4867319032999415
  0.1681741327309754  0.8316090822730698  0.3322885663376644
  0.1548431779187145  0.0083644954457354  0.1944150574677813
  0.1617172563995301  0.6687902046744582  0.1846953000081120
  0.1917027752671769  0.8684840843200120  0.0184179296973349
  0.9939616195427885  0.5320835662896940  0.7747419112233184
  0.1200343487677559  0.3621415237256478  0.8318677962900874
  0.2230231993138739  0.5297155746626521  0.6563366619138271
  0.9916948363799053  0.4924990376975061  0.4863619476239642
  0.1360202456713188  0.3446402478069014  0.5210239766785020
  0.1518903947878803  0.4619160351500528  0.3429830302842007
  0.9872342475358833  0.5310343464058436  0.1905317171896132
  0.1481506056519857  0.3409803667488641  0.1490641514532782
  0.1575786859757853  0.5373432283212749  0.9984528912258633
  0.9987514767002424  0.1508385742377379  0.8305916961689667
  0.1569360306998448  0.9976769658174396  0.8438621657787859
  0.1666248066995621  0.1581283872718137  0.6471936393613733
  0.9154432223589986  0.1911000796121379  0.3949907093416985
  0.1599684182679618  0.0204449207116682  0.4706949036876894
  0.1672263287990096  0.1678023456114951  0.3245143554950803
  0.1764820627327199  0.1716682366779817  0.9920080544013433
  0.9899278114430933  0.1636699998195276  0.1741477576142263
