Cl O  Li
 1.0000000000000000
    11.7780000000000005    0.0000000000000000    0.0000000000000000
     0.0000000000000000   11.7780000000000005    0.0000000000000000
     0.0000000000000000    0.0000000000000000   11.7780000000000005
 Cl  O   Li 
  27  27  80
Direct
  0.6841501613423067  0.6847915960661641  0.6647848902613329
  0.6433410300704339  0.6561574396967057  0.3302100213065806
  0.6621144385401279  0.6666633226037693  0.9853845742353160
  0.6540242795584185  0.3195508104444136  0.6662233368762893
  0.6485346199130024  0.3320681097305251  0.3407807213549485
  0.6658420112035748  0.3262974610974618  0.0028295118595088
  0.6939490880211020  0.9799387809452327  0.6600261946922759
  0.6743471456371078  0.9819177153738230  0.3376563610568138
  0.6709931318511223  0.9803675935510706  0.0021226789852240
  0.3294523432631191  0.6805837854700798  0.6615155314675193
  0.3427261326765531  0.6483221768559412  0.3362403838443708
  0.3480120292537713  0.6869617759802684  0.9971811313784923
  0.3441903684976376  0.3362002935808528  0.6400070096735017
  0.3282844404000469  0.3183544260954528  0.3233347687488768
  0.3385799408743883  0.3584710139449938  0.9882626491331313
  0.3370810090569903  0.0147031406688859  0.6724327461395129
  0.3463930581959189  0.9820492992819539  0.3264310524152223
  0.3384639096895172  0.9994949240115562  0.0175762253262576
  0.9885117559380644  0.6664746605934767  0.6829985879386886
  0.9997241540829055  0.6555067986736557  0.3120772337209779
  0.0144704441133842  0.6746704055242939  0.9829886932215057
  0.0024010902685194  0.3331690294828614  0.6817310707244737
  0.0171568876491221  0.3410044745079707  0.3317818875899746
  0.9679537531288162  0.3442124979057342  0.0109033947575478
  0.0331821882430723  0.9807378617238058  0.6820397314898108
  0.0238165718461248  0.0054019074602550  0.3404257452806469
  0.9940372565577937  0.0156515645336913  0.0208606522835809
  0.8315933280145286  0.8455547055191449  0.8510698806805028
  0.8439900415071515  0.8286457311477334  0.4673410277582734
  0.8312002146840690  0.8327178346497190  0.1655865369242167
  0.8125186271241057  0.5089347970523944  0.8360039641109286
  0.8221241145142361  0.4896135400154732  0.5073482645155825
  0.8123250258938010  0.4813589697840218  0.1696332459528212
  0.8172902375389315  0.1638150476194597  0.8199800008006752
  0.8688758561978671  0.1790987250877166  0.5074346603803818
  0.8111592890001602  0.1860176411600341  0.1925049924701380
  0.4853846121465404  0.8442675123957022  0.8344473810697844
  0.5091777256231360  0.8308759104393599  0.5147997661555823
  0.4884146211968239  0.8391896703401351  0.1766688207338637
  0.5071640623038367  0.5116305585582624  0.8156119489520716
  0.4940695018001807  0.4979789188139140  0.5090132269991199
  0.4851344932839678  0.5059896454213327  0.1650579492907654
  0.4995545461088644  0.1703024803140527  0.8461990000405184
  0.4724139369972825  0.1542999135429494  0.4708777926847011
  0.5037470532199938  0.1554757616677212  0.1741441100849670
  0.1933368728342119  0.8191116600207266  0.8381514721954698
  0.1876296648385151  0.8264494786296316  0.4886922232492875
  0.1565074776015602  0.8475516888495513  0.1509449681788662
  0.1652521642056731  0.4916797533968669  0.8332111185920386
  0.1686433942047406  0.4834830368162112  0.5189633666840190
  0.1535188547615818  0.5311459431358175  0.1598644404190168
  0.1661517601357600  0.1690584851230094  0.8308569729751940
  0.1551558013414449  0.1569583272581533  0.4989929260988053
  0.1659334830481006  0.1790713974360111  0.1577931562400289
  0.6497583319136687  0.8541661141537550  0.8401282937917289
  0.8080936527891348  0.6935710191520005  0.8417971023892102
  0.8459448390404067  0.8220594027180240  0.6913625497477820
  0.6689423029255037  0.8368666984889398  0.5195873278219223
  0.8244567218929957  0.6630127936754269  0.4730990247007323
  0.8187296558037264  0.8414383919495113  0.3076966313952950
  0.6466020893552108  0.8460813397315671  0.1831228630866136
  0.8119158803410077  0.6708108909098720  0.1653023698318897
  0.8706527608398720  0.8295165723154146  0.0113064586426677
  0.6545627759959511  0.5279279603272105  0.8447546425557118
  0.8387887189512858  0.3343929843959874  0.8212175588115388
  0.8201008966381923  0.5023073759316020  0.6779181548168859
  0.6602336078508221  0.4885219319074216  0.5150249460056354
  0.8620789226656806  0.3259862902367087  0.5356678492498536
  0.8441604041121540  0.4709323573096090  0.3335469907349838
  0.6614518543211473  0.5039645247310223  0.1557351107900894
  0.8185892524020751  0.3250970686929175  0.1625008401925690
  0.8002135725995733  0.4851495782307360  0.9807947142122055
  0.6643261159994144  0.1798220981497131  0.8416222054182950
  0.8305094526197746  0.9926445587921232  0.8899745782690783
  0.8207726305598181  0.1415367666050135  0.6643882547002091
  0.5492209134244667  0.2780753500531415  0.5099132581473637
  0.8443070422669352  0.0063219440942668  0.4699736320246442
  0.8242304084514646  0.2306946270407753  0.3595817813596273
  0.6614540810186936  0.1727478193167737  0.1399693735457478
  0.8396197224755919  0.0158085568320630  0.2006168921169819
  0.8367540032188207  0.1807996588579804  0.9752862946399613
  0.3495043619493499  0.8473240798749022  0.8596848520311869
  0.5031143472335448  0.6550514187827177  0.8000417461163591
  0.4780352956812141  0.8357878432850173  0.6828685488019804
  0.3515078229453458  0.8065607780870749  0.4816828222857673
  0.5126693088320775  0.6679886124979602  0.5179202600970684
  0.5191176224993217  0.8699446549089882  0.3644110429981994
  0.3297103770233337  0.8648487563605906  0.1605522268056812
  0.4875228895576167  0.6690479942197042  0.1980663315338423
  0.5083887054689316  0.8452088791474883  0.0171344206993380
  0.3640780164195361  0.5211743866690635  0.8420630105616569
  0.4887621884411075  0.3384943588493552  0.8032551540736436
  0.5162518627571406  0.4930677147056355  0.6744674213865679
  0.3352812908864875  0.5038993432210285  0.4993269307307611
  0.5108910276861347  0.1724580652378757  0.3211363502613436
  0.5060902272907464  0.4883019746752501  0.3390660427880121
  0.3273206042457472  0.4798699973774675  0.1754888532186311
  0.4862152917875671  0.3489387241760241  0.1721644140246024
  0.4897890198932647  0.5218036109102584  0.0011236364970411
  0.3237022409755973  0.1801317508075936  0.8523547256501693
  0.4903294191450642  0.0055673890430223  0.8110060048346959
  0.3344200245182557  0.1271111470362511  0.4813118139891318
  0.1621478340641033  0.1712458308509257  0.3530826180175060
  0.4747326173950249  0.1710618246627755  0.6618831794751303
  0.5271867695532754  0.0189190546728025  0.5159263131724069
  0.1525941578773359  0.1948572458077375  0.9892587104085696
  0.5081275745748570  0.0045037259891777  0.1990518476251617
  0.4916112681943958  0.1443063836199537  0.0178428976608168
  0.0109537055480141  0.8171248790136236  0.8019845599682737
  0.1763288509073968  0.6353665622791786  0.8004752638859328
  0.1919941134856345  0.8583268807034962  0.6535588528823626
  0.0254095765741807  0.8345561961440041  0.4476659687239384
  0.1282591269460681  0.6555304421530572  0.5197968398183309
  0.1718856176525457  0.8452873398719405  0.3188282972837090
  0.0087024169106141  0.8616734856594638  0.1593769758407060
  0.1502472692702220  0.6835946044360544  0.1739988889195336
  0.1514193421305174  0.8357186132340301  0.9894933461321803
  0.9834953530224104  0.4930653665518594  0.8381357638564154
  0.1450365338565465  0.3340049114990646  0.8095953312109542
  0.1728258508128539  0.4768932671266573  0.6658677535208387
  0.9828490173696731  0.4980108213169421  0.4990242618060942
  0.1824670058491363  0.3384617276089485  0.4894623772024626
  0.1582835219286041  0.5415357948580101  0.3267467778845930
  0.0073749806571123  0.5009511956696315  0.1330662569046571
  0.1963495743717485  0.3406594983299228  0.1771941391704628
  0.1778062647294147  0.4846052923795828  0.0026345271668366
  0.9902665422619703  0.1396891541945587  0.8064541492249917
  0.1873064698110117  0.9842126687910059  0.8347715882325364
  0.1759123977381102  0.1500999874804496  0.6543975486345562
  0.9969878851057180  0.1202464611705402  0.5316714534644447
  0.1644475774113490  0.9843833350365829  0.5045623015163815
  0.3424896573971284  0.1375779514013758  0.1708097722082094
  0.9948445413251392  0.1940312017461482  0.1937121661808463
  0.1494509516208768  0.9891966719921911  0.1499902412418016
