Cl O  Li
 1.0000000000000000
    11.7780000000000005    0.0000000000000000    0.0000000000000000
     0.0000000000000000   11.7780000000000005    0.0000000000000000
     0.0000000000000000    0.0000000000000000   11.7780000000000005
 Cl  O   Li 
  27  27  80
Direct
  0.6394430269909730  0.6606647167780411  0.6412085070480026
  0.6659960713481820  0.6548424290046069  0.3367773132148046
  0.6763586763894891  0.6671614914809764  0.9671851000659047
  0.6677394945561715  0.3335833733188002  0.6510299841001314
  0.6755703040018434  0.3459231238396460  0.3363774995490009
  0.6538777355342655  0.3390927088734442  0.0015274528443883
  0.6634488508113620  0.9827380797949760  0.6709420042388101
  0.6787162632661781  0.0044545419291369  0.3121418805418262
  0.6611872143562167  0.0103300379688691  0.9912294938302705
  0.3408330075824357  0.6624695968383105  0.6794140216070172
  0.3244980960811840  0.6499646658449340  0.3350862983699746
  0.3309683123552026  0.6884824443707698  0.0149735478462093
  0.3367554183074041  0.3368140887888317  0.6679163271273897
  0.3426394260882827  0.3146364038967190  0.3363646454313469
  0.3122301059494463  0.3535515872064675  0.9957730129247430
  0.3605901710281170  0.9961231449390749  0.6698669951488316
  0.3282551421230629  0.0178352599523443  0.3618410005540652
  0.3372624170960081  0.0183431456244596  0.9934346733812626
  0.9512873273564372  0.6586914578978561  0.6734781722587182
  0.0014495109476104  0.6570191270697106  0.3010930073167273
  0.9902752990051553  0.6477976842782144  0.9900737036957827
  0.9777167899998227  0.3144977616104000  0.6810973239812548
  0.0276639793007560  0.3270958495320348  0.3434690454092773
  0.0027076760321306  0.3440122934615791  0.0211763946775163
  0.9901713425937971  0.9942848153903089  0.6705938701987872
  0.0173241093474651  0.0138003435645521  0.3554841839132718
  0.9811001177529386  0.9870030481988729  0.9992309861268630
  0.8264328683970944  0.8312709224920554  0.8179804382679216
  0.8187625836018112  0.8317578810027418  0.4932527141151959
  0.8378157462541491  0.8467305191878280  0.1522740249587169
  0.8211566478328506  0.4919254957431353  0.8231342309525247
  0.8349833060043440  0.4907850622307033  0.4866012041754927
  0.8373802042140788  0.5156596219774571  0.1676855553515456
  0.8497294688062590  0.1596442872027861  0.8505801000550092
  0.8504815257811937  0.1633333784840907  0.5031398989876474
  0.8415885006350825  0.1504819429884411  0.1632017051091783
  0.5021851392645469  0.8273163886205180  0.8247807725745421
  0.5053153092190071  0.8426666747094690  0.5044539339378766
  0.4977374931000131  0.8315430654176320  0.1746486106420437
  0.4970231685271368  0.5179715817971503  0.8437281873361325
  0.5003915546336490  0.4760096284774059  0.4861469173906228
  0.5121889626030185  0.5251122769450866  0.1513334173083668
  0.5192504278037138  0.1787648580626644  0.8232398169016328
  0.5055169265604786  0.1620100116468718  0.5123534066387967
  0.5014150662821915  0.1680046964171576  0.1588340986000841
  0.1634182996303467  0.8280305512517545  0.8301013651480736
  0.1585759915684234  0.8484745496769668  0.5038700938412178
  0.1570261594693859  0.8308395099637981  0.1642113505048183
  0.1582763792922066  0.5014003367154087  0.8452744870831532
  0.1635422355915073  0.4990359078044408  0.5171530734427069
  0.1846100129702782  0.5042115626104084  0.1855838413214577
  0.1680541827083688  0.1540370376842166  0.8365886662650845
  0.1655535001502680  0.1743240336897045  0.5274382703802201
  0.1855224528966666  0.1674449957461720  0.1536233733077610
  0.6665156610992755  0.8218247856754253  0.7915514007213402
  0.8116594993997037  0.6384130852846840  0.8179234348107343
  0.8585545594345010  0.8179901695881125  0.6756826433150365
  0.6622941259492233  0.8367619586414092  0.5204187885496262
  0.8279271039069401  0.6826246913782333  0.5171984171018330
  0.8226905590444317  0.8177852324430266  0.3204949315329422
  0.6717447566463561  0.8389686563952738  0.1556820564029069
  0.8675303367585175  0.6834922937131198  0.1441144942270856
  0.7853507035206265  0.8535971685959207  0.9844787326429448
  0.6547324635087930  0.4974283131467800  0.8278592021751067
  0.8168128062593877  0.3368766792325896  0.8417227830404598
  0.8059272511779627  0.4764114866564111  0.6598149536871285
  0.6628587354761634  0.4919607180497779  0.4901647704432969
  0.8214438513309228  0.3310107684299515  0.5069038680346251
  0.8141595544339504  0.5083326129730044  0.3398585565513595
  0.6661048556446748  0.5056577014532524  0.1739822410372343
  0.8270790965104617  0.3740954226525769  0.1669658462191481
  0.8450650637569384  0.5316298206633181  0.0052163537177493
  0.6911756481733788  0.2005958866322168  0.8085548680395379
  0.8229888555448255  0.9995788696194824  0.8634206955821490
  0.8491150622251000  0.1345005905721433  0.6757463673502727
  0.6631533073188435  0.1265507843853228  0.5078269758665311
  0.8331859157449122  0.9874049873486981  0.5078602143880870
  0.8499725432075032  0.1611107193573595  0.3263803563031685
  0.6618046978285308  0.1617941434411035  0.1748238922243531
  0.8358445116444607  0.0016631640063572  0.1587953439414247
  0.8418315750363264  0.1821109367083029  0.0299541806345884
  0.3210281928092623  0.8242685659898636  0.8318621565969251
  0.4916423741490334  0.6736057970926371  0.8186131442543707
  0.4927414315725128  0.8017039417923066  0.6649655885097570
  0.3209409669935593  0.8289325661850849  0.4863338385282884
  0.5094725130526740  0.6706255041257527  0.4696649831231956
  0.5258681324261220  0.8671782422707541  0.3215914181328908
  0.3298195388483242  0.8712366617041820  0.1717458674778879
  0.5256949358424242  0.6783047361966317  0.1959207786128665
  0.5238172225296834  0.8252659645489988  0.9928768938694954
  0.3237549863818447  0.5018564858291356  0.8348528947995724
  0.5170958347724339  0.3485552827665077  0.8683567577321272
  0.4903023880510366  0.4914625450805395  0.6755139001264315
  0.3201173520565663  0.4974626447744041  0.5231279912115925
  0.5406545377255115  0.3115876905870462  0.4907146432810210
  0.4782263190050912  0.4635546564798878  0.3367164838863786
  0.3352442396535011  0.5105913749640444  0.1480247370601549
  0.5130573341606935  0.3635990538168479  0.1464560893668506
  0.5102346913800924  0.5124695336162944  0.9908140458378023
  0.3204935627283783  0.1572664677424826  0.8420863420216674
  0.5131620699161931  0.9932918177217505  0.8039157258860161
  0.4750351780232702  0.1896775586114502  0.6732951377204063
  0.3294558179254767  0.1711697951590384  0.4924285526251687
  0.4861378563581715  0.0191336472916339  0.4945782469218464
  0.4744083424212616  0.1968122011906012  0.3318327896141502
  0.3277630622080197  0.1679158410637049  0.1600239243126355
  0.5027482913167294  0.9815275192266928  0.1626100007216398
  0.5169373748779521  0.1391406638900936  0.9915948847762777
  0.0114597281342211  0.8320895374809215  0.8583024490874678
  0.1806523617221761  0.6697569706264379  0.8283328005005151
  0.1955605268919423  0.8431623780687015  0.6647541736990814
  0.0072728491276570  0.8179236925450009  0.4660059927441769
  0.1508932878736428  0.6732066919215074  0.5180129835497058
  0.1677384876030557  0.8729203689325189  0.3136178166463816
  0.9956364683970855  0.8871683992506056  0.1638982869511508
  0.1773852498686140  0.6660319485438166  0.1925790723915009
  0.1754181852561487  0.8488611853418369  0.9991292430497031
  0.9885819619425149  0.5052988387795970  0.8554521142864716
  0.1620877567542170  0.3287797794301264  0.8869810989224439
  0.1356058047768520  0.4878545663180377  0.6824146382496887
  0.9906220540109022  0.4972379507492701  0.5007108958478348
  0.1856341318999696  0.3375925624937483  0.5041425201646640
  0.1808995858779383  0.4876615723688821  0.3634329678434914
  0.0040532465863602  0.4858030491404501  0.1917177857805641
  0.1558244108036089  0.3257975836489750  0.1782890587033126
  0.1682885122610671  0.5112578862677886  0.0075305835670293
  0.0003324058084108  0.1348537751670554  0.8317700927747349
  0.1821302006409983  0.9908057371123609  0.8198690826413445
  0.1590119080985357  0.1795252752747505  0.6990257209748055
  0.0026713969930302  0.1840545602684163  0.5519940884945631
  0.1327034361027381  0.0149375040846247  0.5219238741493342
  0.1970507543462044  0.1628697699335836  0.3019608525640733
  0.0368443015674499  0.1541076847245514  0.1729799639862022
  0.1655347250414111  0.1505743509366156  0.0012063173539691
