Cl O  Li
 1.0000000000000000
    11.7780000000000005    0.0000000000000000    0.0000000000000000
     0.0000000000000000   11.7780000000000005    0.0000000000000000
     0.0000000000000000    0.0000000000000000   11.7780000000000005
 Cl  O   Li 
  27  27  80
Direct
  0.6771980836316149  0.6553374923259404  0.6826159311572978
  0.7020390404881234  0.6693427316406527  0.3499595038376799
  0.6568224245783715  0.6416852453004431  0.9887534144643050
  0.6695293777673189  0.3260729124078915  0.6624366263422344
  0.6761909280886857  0.3402187777940098  0.3255958902069988
  0.6440201687344392  0.3131892808899918  0.0145275207995522
  0.6777667821849583  0.0155663489127472  0.6560059643137214
  0.6612485729902302  0.9931061182424586  0.3294035430112953
  0.6301487741849688  0.9820748719852943  0.9947510293661348
  0.3203414822812195  0.6742919515488593  0.6169928872827526
  0.3374517501108231  0.6755208051965874  0.3410638471399229
  0.3343101632707614  0.6658670591978155  0.0095192870805214
  0.3715040486490492  0.3363895867516283  0.6817432276607596
  0.3450039187226238  0.3380703992731549  0.3196045353616800
  0.3195385756314076  0.3182923453559479  0.9993048107212951
  0.3328417979378637  0.0170945592725417  0.6315119269349377
  0.3376052100571780  0.0262836769945437  0.3422048879335040
  0.3369684757724404  0.9854152485139774  0.0050877699237546
  0.9897080843274555  0.6644752112896930  0.6699125406844244
  0.0094142595622472  0.6610448420205720  0.3404485093943355
  0.0073001804072054  0.6872281331288533  0.9712267782317421
  0.9958082614243389  0.3336681979812721  0.6575757860839138
  0.0008257538086999  0.3682877578407891  0.3373887030823406
  0.0026204946459728  0.3318976697913317  0.0206362732123272
  0.9802469856215167  0.0125444609826627  0.6631049190040156
  0.9868522713444277  0.9984401451718047  0.3439821164587885
  0.0002292391297840  0.0359277267376364  0.0024042027498757
  0.8322152607942969  0.8633414476999651  0.8504240687345406
  0.8269638173009328  0.8342994817962410  0.5115778270901074
  0.8438354641243849  0.8209865834768107  0.1706944810740230
  0.8265237408949496  0.4976634196509270  0.8280029248297897
  0.8309904152021524  0.4775180820947982  0.5139580453109495
  0.8340413956947819  0.4942788393804412  0.1501501800456992
  0.8207279305796124  0.1728423968710085  0.8397402929362270
  0.8309487152299205  0.1656844144530304  0.4904228643810435
  0.8413414009308083  0.1561313151833546  0.1586720653175927
  0.4859896220249565  0.8233682591724104  0.8303274351265625
  0.5263349119552150  0.8401433078077603  0.4988188906348046
  0.4975638339293595  0.8103664507429135  0.1887333020231687
  0.4951384339910310  0.4992096789125378  0.8254842465069732
  0.5142310294326448  0.4901565339701374  0.5074975860207249
  0.5089465093593645  0.4944131699706024  0.1681338193811049
  0.4921430804516511  0.1565123537403013  0.8313034573892525
  0.5010232717228132  0.1662351273630107  0.4842859644870119
  0.4961226747919374  0.1505424460408951  0.1823805136806638
  0.1550264564904199  0.8398630678001967  0.8225475968119976
  0.1707835602210930  0.8533094870015896  0.4923411845599481
  0.1625275021508265  0.8295877897881174  0.1764989957524961
  0.1757912410612444  0.5123761819896466  0.8234198144836166
  0.1792451323535372  0.4728782112038977  0.5067251648845935
  0.1560120839166166  0.4894984841170695  0.1745200689149202
  0.1651418778613745  0.1650805138357493  0.8090934853827175
  0.1451370651631269  0.1817917169796331  0.5033052003658253
  0.1817184670172276  0.1745876824078550  0.2031780914335349
  0.6703311913110626  0.8362530647671982  0.8265718465594414
  0.8069672636263115  0.7072673584255449  0.8603765160878060
  0.8231374602372467  0.8814721098015463  0.6708675915047685
  0.6927402705636532  0.8319396682220058  0.4987284462290119
  0.8563924188695270  0.6657166154145006  0.4920456815528396
  0.8156866063638057  0.8345810173369224  0.3561374154519747
  0.6583295749339859  0.8148714242479137  0.2214204730238289
  0.8465386749456808  0.6432501683360334  0.1470820742246679
  0.8071964920173581  0.8650892028468178  0.0085475714533133
  0.6608676862535708  0.4975211134350089  0.8312474255819038
  0.8074989180295655  0.3530112361687379  0.8577112805810281
  0.8273575783979513  0.4997474466126916  0.6806117414239232
  0.6827930863136792  0.4971370283509646  0.5026944779569704
  0.7712640712845003  0.3164557652197000  0.5055025864754052
  0.8401608463771317  0.4864433336272171  0.3683511348916958
  0.6858822040624664  0.4863733343534410  0.1720912682021573
  0.8333158971487639  0.3320465346436592  0.1516141729543241
  0.8574439059363339  0.4934617223517425  0.9888261072830108
  0.6434022399226158  0.1962999065419559  0.8422625339751175
  0.8640754970543494  0.0247684548603236  0.8648835138633029
  0.8115401716491812  0.1603547430263212  0.6573529948730468
  0.6860609876327350  0.1103155455706363  0.4919673017992073
  0.8444659838986979  0.9864579806108861  0.4960668544091282
  0.8164449790626902  0.1870275533474677  0.3097977545133575
  0.6438351504110407  0.1476797328258116  0.1623079587702440
  0.8370548866978120  0.9906112187721331  0.1497983415906675
  0.8524924593305809  0.1884396642032621  0.9940534657529713
  0.3099858609731262  0.8447459321215214  0.8519900443907894
  0.4574242098815660  0.6388745052303624  0.8306909941077704
  0.5059314799107566  0.8503575338216590  0.6780301487740691
  0.3472238147201272  0.8285847232715918  0.4766482704467254
  0.5466031632159033  0.6761988953275725  0.5179965864080998
  0.4875583102036707  0.8199240843785019  0.3484856729744411
  0.3188954244091954  0.7972230243494669  0.1481503424938924
  0.5094478806759877  0.6480951787990697  0.1699489017646777
  0.5026451982155907  0.8076429162458307  0.0050908588340157
  0.3376851687417977  0.4741225707636303  0.8023193046509141
  0.4717330897707835  0.3191986922281412  0.8565169609879740
  0.5184187997508120  0.4851688124370835  0.6591621663867693
  0.3545213098607379  0.4819453236127254  0.4998275441379013
  0.5295142716827450  0.3250730239960456  0.4521635042268166
  0.4990070173372781  0.4741734609239174  0.3272979575687407
  0.3228599784196913  0.4832050676282330  0.1616609209486782
  0.5187762049497097  0.3470921882655614  0.1530239761417522
  0.5135680808449749  0.4784537808891938  0.9954142278246941
  0.3171369203860055  0.1245853266752101  0.8147135080481213
  0.4961066830550134  0.9975334549643575  0.8594618697065761
  0.4927158680313978  0.1534848851494912  0.6683930827641900
  0.2961487373231649  0.1835793704979756  0.4779973252765476
  0.5010974814792223  0.9949605312529056  0.4729394020426680
  0.5100503440612161  0.1142770631753871  0.3300200750764758
  0.3440223499587730  0.1995738604297969  0.1893351986126580
  0.4690713764946701  0.9672768777373111  0.1773167807904588
  0.4609166432841159  0.1521315793516261  0.0147316330544109
  0.9875756646491290  0.8245220123847107  0.8232572250773215
  0.1778861383555763  0.6570518065241875  0.8054747375011732
  0.1739668470333867  0.8773289948905363  0.6695687385832647
  0.9951890139900623  0.8350475712010024  0.4909819274068227
  0.1591997836385931  0.6571831816794234  0.4713945597704049
  0.1888753360864324  0.8317693056170032  0.3291920269870949
  0.0048850337152350  0.8536265687321930  0.2287755991454808
  0.1549366699725387  0.6604770746316569  0.1579264151587800
  0.1093919299366238  0.8342022358415796  0.0048680783770857
  0.9986229140297389  0.4863934556021783  0.8038381552899995
  0.1943561091843680  0.3476779716618971  0.7952949240857183
  0.1727757662731273  0.5097353186996492  0.6531532813589490
  0.0248361042458411  0.5063330867904321  0.5278054724977388
  0.1648159095832906  0.3214193169630233  0.5129850999394145
  0.1626348289725616  0.4985889566074291  0.3241441441348790
  0.0092823296303783  0.5032266817716031  0.1531242483808063
  0.1835290960057076  0.3173909174610614  0.1500612740854841
  0.1613470994174371  0.4897041095141245  0.9769249377383185
  0.0495273030406655  0.1820040224693271  0.8613062230415313
  0.1618818307118459  0.9991439788046855  0.8534280861516463
  0.1494081443335859  0.1315789180861510  0.6593406665591685
  0.9917422206124908  0.1801015725711166  0.5125158335528692
  0.1331472907684559  0.0197056227704896  0.5025720095919199
  0.1381504271213422  0.2124297189564819  0.3329587085565380
  0.9915271760317809  0.1593140756853192  0.1958323579269877
  0.1747288634191652  0.0110994354885920  0.1244469851711206
