Cl O  Li
 1.0000000000000000
    11.7780000000000005    0.0000000000000000    0.0000000000000000
     0.0000000000000000   11.7780000000000005    0.0000000000000000
     0.0000000000000000    0.0000000000000000   11.7780000000000005
 Cl  O   Li 
  27  27  80
Direct
  0.6629264846409081  0.6832872568071104  0.6601464411803083
  0.6785985082826049  0.6716472965969745  0.3450428681916930
  0.6458105083685040  0.6689868788539789  0.9952220503752351
  0.6705321142365268  0.3251564581498610  0.6505061363376347
  0.6643271178829862  0.3384267455753357  0.3353094873915808
  0.6897362874679188  0.3538456139487150  0.0128010861147742
  0.6708600865424025  0.0104052758625723  0.6501024158297724
  0.6495126966799222  0.9967345105575374  0.2955972070883461
  0.6573741940663240  0.0016406669575569  0.0051289086265764
  0.3190483113957729  0.6931243207420636  0.6617305138147976
  0.3295817446242967  0.6522878618184854  0.3677547783105901
  0.3289352533557650  0.6722304889270744  0.9755216588608030
  0.3354368053370724  0.3089631646125585  0.6633013882056483
  0.3200131799280260  0.3303872743268638  0.3262623545325556
  0.3028933372989731  0.3300070960848782  0.0152324842196182
  0.3506488742365085  0.0053469344903183  0.6768396283167715
  0.3514639669947106  0.0038699144521704  0.3306037872241274
  0.3298276327615310  0.9745076567676444  0.0069730740839261
  0.9810586423423574  0.6798932839215202  0.6825513909210856
  0.9978086105825451  0.6655127853421291  0.3365841097952391
  0.9946237046701464  0.6675723591162935  0.0172643178969635
  0.0264920728043347  0.3383358558300338  0.6644052633929097
  0.9966375229726555  0.3403610170057544  0.3277927637561773
  0.0132068234895513  0.3327606505134271  0.9950737671843832
  0.9849049498569575  0.9734005832329981  0.6627543493466196
  0.0184680771038101  0.0115180141916867  0.3332296709124493
  0.9791844335479140  0.0068369601501152  0.0067752016428734
  0.8212613196914550  0.8503996931000467  0.8389198091257263
  0.8347342973217646  0.8328196325735687  0.4885785855241310
  0.8330006310975692  0.8160366487978720  0.1678045450493340
  0.8403268708792331  0.4949114783627169  0.8254685316751414
  0.8352938866578730  0.4893346941151228  0.5189442623910584
  0.8287428615056260  0.5074166522685531  0.1596228181917064
  0.8490640271970983  0.1526122563477143  0.8029386439593077
  0.8444899855827502  0.1566918192864803  0.5187702560991621
  0.8312106901535652  0.1768610735985275  0.1990687146189276
  0.4982908647569166  0.8375628222306208  0.8201881815990845
  0.5073860740402385  0.8363621059427973  0.4971952167766226
  0.4963319781972581  0.8267849583396204  0.1660802714402432
  0.4974995774197557  0.4984252475763022  0.8060603119776818
  0.5076659091937026  0.4888618650125031  0.5130538376727053
  0.5106473762374750  0.4937471179730140  0.1829747520348983
  0.4856635058838994  0.1568537609262164  0.8668103699709263
  0.5200043236960205  0.1532075639367370  0.4797744258528250
  0.4831412243595988  0.1701062246499677  0.1588869452593928
  0.1769180855546051  0.8276105368189953  0.8219897013703292
  0.1753962997232994  0.8475905724463634  0.4879231672227088
  0.1737618834815572  0.8351591224720172  0.1837434687560210
  0.1505825389409141  0.4972957451245524  0.8311030481173015
  0.1684617157973374  0.5075120763797678  0.5070729685485594
  0.1879613110650181  0.5183730163319528  0.1717210226355332
  0.1647395175720592  0.1662859606404768  0.8281757910374309
  0.1600620762207398  0.1743868684985236  0.4975017723006431
  0.1674492263016495  0.1497435614133131  0.1591214772391407
  0.6600404417083502  0.8244853870553671  0.8358517437901049
  0.8235592715593111  0.6800569259484736  0.8644605158075347
  0.7975547640212983  0.8558811746926561  0.6699130200165665
  0.6832716581804712  0.8551792386552197  0.4783761002791131
  0.8152113419725517  0.6622248842305657  0.5373707513830276
  0.8539094020288239  0.8000697699156256  0.3420873927810981
  0.6791232801661700  0.8056471209589589  0.1835328838962490
  0.8622724731588988  0.6437260882964544  0.1696794648687894
  0.8364094216431953  0.8461479153487740  0.0080945850953056
  0.6757729505524883  0.5027543119751392  0.8440157886449438
  0.8278759879081182  0.3489126691753018  0.7639716798102538
  0.8110708181277776  0.5155553532567734  0.6714077008659212
  0.6586942208572234  0.4716915978053773  0.4671524110539191
  0.8563783642682414  0.3268443151327162  0.5120068849718110
  0.8046918559677504  0.4864693797124510  0.3391434961977443
  0.6713700407659317  0.5113275428681814  0.1834861232477752
  0.8063063331451000  0.3159964519679397  0.1626351249964962
  0.8274274905368689  0.4765968100729856  0.0021164724582502
  0.5210111553556701  0.1562309435011437  0.7134956852667904
  0.8531802597959118  0.0030924149274302  0.8415673929937729
  0.7857685705104807  0.1783075768100609  0.6794313423191088
  0.6830258307713517  0.1797206188302837  0.4948189661259541
  0.8678277191684078  0.0005189976418986  0.5158695574482079
  0.8432734799850522  0.1739160231809907  0.3464165381507549
  0.6738490433870128  0.1735541645870002  0.2236399171890456
  0.8064873029275054  0.0119339005652341  0.1780014635504859
  0.7382968362965828  0.1925775907057418  0.9174883059820530
  0.1755245979873804  0.8358808963603213  0.6609706431557455
  0.4935884034222580  0.6787111504368559  0.8039102128269048
  0.5065755561333589  0.8148035441821010  0.6601103686800571
  0.3315805497981501  0.8341457726613681  0.5003533216639373
  0.5156111304078479  0.6416738018960780  0.5192934085663296
  0.5076085818532360  0.8317669309444636  0.3438183869682379
  0.3453031807088179  0.8230360903505481  0.1987858835451284
  0.5541022695339471  0.6624797803715106  0.1728172258376122
  0.5190985841049761  0.8645125021489539  0.9875959275711755
  0.3123115391827487  0.4890180172386187  0.8010230363028686
  0.4716108986395642  0.3036596568820191  0.8768825731667764
  0.5034903249839255  0.4526524835902864  0.6704845930340152
  0.3233818899178176  0.5179111182900153  0.5027649970482981
  0.5013014812958415  0.3069952498064847  0.5083308097498002
  0.4927914886131162  0.5216917673258857  0.3434857993256297
  0.3367773582308084  0.4930851815205923  0.1663086496376812
  0.5215632144055307  0.3283887930362898  0.1598905583289527
  0.4507918433767232  0.5304922023394780  0.0096474055236638
  0.3323385986137551  0.1493316932167016  0.8462594090926684
  0.3322733766183513  0.8232590336246149  0.8540159278111115
  0.4828458023233100  0.0006023128200357  0.8194540191753404
  0.3314485268763552  0.1301088966967399  0.4907359720486961
  0.5162090189417539  0.9776200839912009  0.5138322506495071
  0.4966558614767303  0.1643381670831402  0.3082964478067011
  0.1488048751974728  0.1031764433203339  0.9878365854995139
  0.5237895475832134  0.9902474808192900  0.1514875584633306
  0.5118581329069624  0.1461167366924870  0.0232672869942571
  0.9896472488349911  0.8306171453023371  0.7945692571052835
  0.1513150920696131  0.6673781101194299  0.8022705537245763
  0.1461148524984630  0.0052497464905213  0.4988416369424101
  0.0156576887507283  0.8446499551812143  0.4878862850142588
  0.1637738190889025  0.6742200229420531  0.4945526126139979
  0.1862605594790991  0.8712275741822534  0.3349359892422343
  0.0019201876755087  0.8588931272501091  0.1769097137434996
  0.1721796124478101  0.6818411179642665  0.1762246601220057
  0.1738082190332268  0.8726417295512494  0.0147253070421767
  0.0033551595036406  0.5261903441361165  0.8133324632516740
  0.1746096682082810  0.3386971678709901  0.8362429947917074
  0.1437380350520553  0.5019398669834960  0.6634289982177604
  0.9922492511921283  0.5055973189169374  0.4944443951132443
  0.1509907634506315  0.3414074433963196  0.5132441595848053
  0.1778965166991860  0.5239090722571533  0.3387799372165367
  0.0097416848443111  0.5004007736394436  0.1558691425602045
  0.1930983427899088  0.3007093636038959  0.1830267150585487
  0.1652879531777307  0.5127025488457713  0.0012513590271979
  0.0114564886629845  0.2040190711936760  0.8477114588053627
  0.1976169801207619  0.9891852031255667  0.8135322992351084
  0.1462477154925140  0.1840882658247878  0.6734833068624195
  0.1379176096074781  0.1804893760368162  0.3340722937494065
  0.0030934826891165  0.1628251058576753  0.4969170820103757
  0.3391383458819318  0.1373804406895829  0.1756004155862328
  0.9748182313764768  0.1908502604482010  0.1450558033287493
  0.2087053266205465  0.9975309098102869  0.2026218356509688
