Cl O  Li
 1.0000000000000000
    11.7780000000000005    0.0000000000000000    0.0000000000000000
     0.0000000000000000   11.7780000000000005    0.0000000000000000
     0.0000000000000000    0.0000000000000000   11.7780000000000005
 Cl  O   Li 
  27  27  80
Direct
  0.6486203441297123  0.6698351994061575  0.6868338432878125
  0.6765026459512858  0.6536092543857434  0.3036128191050908
  0.6713896625598960  0.6638249378743996  0.0153888900711296
  0.6511362289592434  0.3242497564241039  0.6494628139983585
  0.6563762555670062  0.3307344867175839  0.3318301984219834
  0.6277913294560276  0.3266332944485606  0.9959950208700304
  0.6783664322830092  0.9960306002501399  0.6888798139642394
  0.6781162324496169  0.0152692727440564  0.3211557949960694
  0.6667096706277507  0.0023568466109257  0.9921393362386466
  0.3346079541523441  0.6820707809672429  0.6847826904789145
  0.3500285836410555  0.6775086015780059  0.3514321408059773
  0.3361676950554629  0.6624719964452238  0.9730122358412473
  0.3177682503173297  0.3206242677218057  0.6671793508417241
  0.3456632848003275  0.3365988793173495  0.3270165641516458
  0.3361810552407412  0.3218161379475589  0.9898658312325452
  0.3302738088345604  0.9952945729672009  0.6855656783070386
  0.3412658000587019  0.0127225228501269  0.3317665351148620
  0.3371170981611211  0.0296324916444199  0.9893275233052026
  0.0223221505131092  0.6798159055755566  0.6610118439777823
  0.9789735149705162  0.6746509794032215  0.3483143189015471
  0.9801958441413994  0.6761629070372084  0.0121907337268685
  0.0147689469930169  0.3339875096484890  0.6474995550144269
  0.9887160480036116  0.3181321073424960  0.3454515955651110
  0.9885567821964382  0.3515274491337224  0.0036789960597166
  0.0253350190529618  0.0015246834010295  0.6555401193689672
  0.9867268720314770  0.9875479522989024  0.3353475708370528
  0.9967911356588883  0.9843192585690295  0.0138952555165877
  0.8292196850339753  0.8421372174860788  0.8343732032940377
  0.8311479241383137  0.8426929202228335  0.5059075826983322
  0.8207956428765401  0.8586402851374915  0.1743555366336000
  0.8314720503302456  0.4769307634919523  0.8198514106339772
  0.8774284966211324  0.4717769303219391  0.5071442500301773
  0.8463353779085101  0.4984475847950066  0.1429535547285909
  0.8349745241144595  0.1775331409185583  0.8165640763181530
  0.8359709510237561  0.1514476524393249  0.4947828803004268
  0.8280134627304004  0.1677162893245147  0.1471972252765245
  0.5023363152293120  0.8373971856910014  0.8188742547798090
  0.5106006829299673  0.8254823295474134  0.5076380100897330
  0.5036289333976859  0.8315987033386083  0.1644365808357027
  0.5026982143087122  0.4680377788312510  0.8314486182512225
  0.4834920572922334  0.4996767218406040  0.5228860705186004
  0.5099200017327463  0.4912528821102183  0.1681411071795447
  0.4942162780150713  0.1650414182901727  0.8352257450564288
  0.4986170015894915  0.1660633206436702  0.5270306429043679
  0.5063194722856725  0.1643579435996662  0.1571897228215670
  0.1523742071276913  0.8390493952704094  0.8383269274573764
  0.1542279125923413  0.8189164057643106  0.4976096121074314
  0.1869504982053413  0.8192759162045249  0.1585138183961647
  0.1508176443292524  0.5033677361788804  0.8444341515459262
  0.1704634222908525  0.5037865172592383  0.5103078609332431
  0.1465233467761962  0.5187036904327147  0.1892260908575375
  0.1622058156536559  0.1739805664395512  0.8408694112012339
  0.1857115029624249  0.1574585718589943  0.4671634097601451
  0.1770699326974140  0.2002774798508127  0.1693711753895706
  0.6627717357742866  0.8500538964862207  0.8408240675421078
  0.8387239588992706  0.6790422698771272  0.8498342574645682
  0.8393069488023208  0.8193154299646205  0.6626764420926304
  0.6738774505149328  0.8452720027772714  0.5053454832668079
  0.7057485773502574  0.5816002038898421  0.5344906869658638
  0.8363256032147781  0.8208435922479910  0.3549161532432612
  0.6748023397048760  0.8409960147508579  0.1794694511894183
  0.8260564789850088  0.6649710393442223  0.1739534557848401
  0.8467184508573058  0.8536907008605956  0.0058943896368261
  0.6690362456804303  0.4956775730473195  0.8013068257012305
  0.7860279873874843  0.3335517651813689  0.8425234021386794
  0.8539883349483417  0.4355691278307097  0.6593109304502236
  0.7143551277356754  0.5998143064212974  0.5242865823044486
  0.8192726627256411  0.3307359239496365  0.4577189328453223
  0.8429067495120159  0.5367771061646491  0.3372909312420015
  0.6754961786603256  0.5060896107741560  0.1554628581462404
  0.8500799544441293  0.3458891675484385  0.1734614568406166
  0.8276903081883069  0.4771624210075949  0.9857327276043106
  0.6743058671228549  0.1282651601580594  0.8343302077886879
  0.8575212537608258  0.0105047744771037  0.8482724922909528
  0.8428511225587667  0.1907205344671931  0.6426071766217677
  0.6546419415762518  0.1530120491645862  0.5082988534360862
  0.8590303069307070  0.9978797074578396  0.5054031749759639
  0.8111922607277260  0.1793636077579061  0.3470597570185109
  0.6735642553836831  0.2082675184137551  0.1226303445239169
  0.8149363514384260  0.0032573639003808  0.1687797543999017
  0.8530990324337304  0.1522132922692926  0.0015445128906526
  0.3137178469950688  0.8358645700125382  0.8498825160732097
  0.5012360432435344  0.6606625415336318  0.8074252237629220
  0.5275847577368065  0.8687698156738082  0.6615316766413355
  0.3275723186431867  0.8348756733894895  0.5093399357525400
  0.4855521573767270  0.6626078249955525  0.5241175557179740
  0.5379033956229252  0.8367902284252703  0.3341757611319219
  0.3364928536253481  0.8816514634066213  0.1981105330967427
  0.4959071106755565  0.6751903665197727  0.1973428285108685
  0.5062190279836262  0.8398063104945362  0.0100274610032497
  0.3192447329749193  0.4806429112142144  0.8662997546555622
  0.4899696419108600  0.3181496172822924  0.8282994201540933
  0.4950319780544223  0.4511385614436335  0.6767191708969417
  0.3256670145235759  0.5097446740684110  0.4987157139922394
  0.4948433970149495  0.3423125649786355  0.5052301808193158
  0.5300884159725374  0.4875870901823308  0.3694702127750393
  0.3518533015521925  0.4982964527597228  0.1602619682757641
  0.4996722537994222  0.3499735381296341  0.1751341115520415
  0.4774991235159272  0.4877244571782369  0.9815695331951424
  0.3283245375597612  0.1791621928434842  0.8256412291086442
  0.4733175474654799  0.9841695207500504  0.8530880698609670
  0.5130391191702945  0.1569199236011744  0.6845992915719131
  0.3400851240487955  0.1685134571674684  0.5352928648782969
  0.4700813057369925  0.9944911254576156  0.4897470216149614
  0.4617319186754756  0.1676778889131922  0.3509138870734117
  0.1631586600191585  0.1373436590884310  0.3091187133998905
  0.5384474790470286  0.9907676962228417  0.1436659056377328
  0.4892854384829747  0.1412062809580654  0.9979588434867781
  0.9942887217169283  0.8284423798093307  0.8458181857699313
  0.1704925110578901  0.6691824936272009  0.7961948139596791
  0.1624923713851691  0.8544009768924784  0.6708142928872420
  0.9915192293211406  0.8327004732845534  0.5026285478915444
  0.1914075167422749  0.6690938305794455  0.5474563014388800
  0.1907064916265620  0.7816134729343654  0.3251833645471275
  0.0310504304048463  0.8431453041934363  0.1618346746314143
  0.1553401783808116  0.6662630907168574  0.1334956062936125
  0.1763560534640470  0.8218826907793578  0.0038822707726573
  0.9863129327531136  0.5186995609209014  0.8526266981293587
  0.1455911702124650  0.3392063826295612  0.8444676734653516
  0.1547790910845357  0.4834110606330445  0.6872855794918565
  0.0139188685147866  0.5127765859329614  0.5164968250644498
  0.1705306685567529  0.3653764552514994  0.4864849097095260
  0.1570173674581491  0.5641564172532020  0.3387786081154379
  0.0058912291273679  0.5352158673013627  0.1504563108975672
  0.1440719147192802  0.1684557553369599  0.0092908416211905
  0.1473466277085574  0.5066819932923108  0.0187872138731189
  0.0006658848065515  0.1706756816985207  0.8048387728638760
  0.1451445250487202  0.0160954800124544  0.8623608481522596
  0.1637526113469484  0.1896517803730493  0.6743706122666681
  0.0163719819813839  0.1862806210159567  0.4961841208236538
  0.1543148448888221  0.9769471526134175  0.4737801022473050
  0.0029099686224445  0.1910950649944929  0.1912881139990030
  0.1745403435566203  0.3599301149947126  0.2229449920449569
  0.3226900211176011  0.1877174279718108  0.1409191628794053
