Cl O  Li
 1.0000000000000000
    11.7780000000000005    0.0000000000000000    0.0000000000000000
     0.0000000000000000   11.7780000000000005    0.0000000000000000
     0.0000000000000000    0.0000000000000000   11.7780000000000005
 Cl  O   Li 
  27  27  80
Direct
  0.6708228500104713  0.6638637957321963  0.6503914142688770
  0.6297861907347692  0.6630335209452691  0.3195426605028141
  0.6660362599939696  0.6651735392289725  0.0166510926498429
  0.6719428788762963  0.3225198067218825  0.6629811217106556
  0.6793791580021610  0.3223923586514101  0.3333036715820994
  0.6636329650894652  0.3242600518251922  0.9863107571191960
  0.6636064066605485  0.0295853837948979  0.6791090920390295
  0.6477256807306416  0.9980512299944372  0.3518401796755642
  0.6586611138371053  0.9977870960634515  0.0173568014214175
  0.3646442046709951  0.6655030904658356  0.6876396108245915
  0.3193561117700046  0.6781468864152860  0.3271060435731666
  0.3265008554589342  0.6831191020363350  0.0184901841466757
  0.3502969446131600  0.3156410926616294  0.6564677884750573
  0.3310133592501823  0.3117269025010915  0.3228936581257596
  0.3179927251050658  0.3362872954667571  0.0140109049601238
  0.3459277186876684  0.9900224351913740  0.6615584239201636
  0.3451603987131885  0.0026943868456798  0.3485545457469572
  0.3311154836967409  0.9959303075399475  0.0088054718699805
  0.9838357364303003  0.6863248177657322  0.6903322144684846
  0.0053534737157542  0.6837372332752081  0.3189539621569633
  0.0152102818790646  0.6689198971226289  0.9827738011522402
  0.0158132715746222  0.3261555382328941  0.6774009316230925
  0.0099160763040421  0.3074081821244927  0.3093800938719913
  0.0043849526404237  0.3531692458270377  0.0107448583789105
  0.9852755355109825  0.9941536496059092  0.6526439819921971
  0.9831454450088961  0.9972484682064827  0.3397380785110312
  0.9920600811403133  0.9667027340603349  0.9862597088127766
  0.8215741200138136  0.8417565655261389  0.8379968363330459
  0.8320563594414755  0.8286787254967858  0.5001462523751202
  0.8396174146007570  0.8274158236193033  0.1504001035714404
  0.8160068093521440  0.4937156824315859  0.8215909336654748
  0.8383047156690555  0.5135313068092118  0.4825029536383251
  0.8452763842305171  0.4796058693030140  0.1538209587692271
  0.8396667258300566  0.1543046996826302  0.8411483825839513
  0.8471834089800503  0.1828238673665235  0.5220405596403995
  0.8430236140801474  0.1744028211294233  0.1536204142911188
  0.4993563698207687  0.8316915687332570  0.8395220026960810
  0.5103790894710503  0.8359284478536744  0.5078332171592964
  0.4945833424165950  0.8364014793833435  0.1826899305163030
  0.4920388344022406  0.4934867779238188  0.8289228414045294
  0.4733512954870168  0.4842263476825562  0.4813379049966532
  0.4909551614345362  0.4983959982470106  0.1691086948998299
  0.4875368973029853  0.1676091365513843  0.8479209438993571
  0.4980440352577567  0.1904285860404187  0.4935149041695643
  0.5095868304840510  0.1563320571918397  0.1555092003634765
  0.1729034813799338  0.8457207349252404  0.8375926300002644
  0.1758319327793977  0.8552346443181000  0.4918539902270202
  0.1631853230939569  0.8422918636162867  0.1597961194505721
  0.1784167642620464  0.4920116515274622  0.8165278282991235
  0.1580659126437400  0.5344921419776419  0.5148713627638697
  0.1709911125562895  0.5132329698234078  0.1699238483861469
  0.1805111352460492  0.1714031154084756  0.8569363159542892
  0.1676342040634936  0.1630507223052709  0.5036504670319610
  0.1753225655943126  0.1422683468238301  0.1479793493339018
  0.6645097171269968  0.8501040902587989  0.8396522847452488
  0.8040047476355578  0.6802805889750397  0.8110568729130971
  0.8351365704000772  0.8521081990213537  0.6701666342073888
  0.6756908157009403  0.8504491069222569  0.4911861833901583
  0.7811361589802159  0.6716434316197116  0.4812459221452831
  0.8245556275429961  0.8533310203430015  0.3350609408002864
  0.6490257077290336  0.8221992785493021  0.1507762737578425
  0.8550205746350816  0.6590028340176460  0.1521439316335293
  0.8809984427733578  0.7960924238949760  0.9972546140375566
  0.6399775424920551  0.4874937631766927  0.8254562376935172
  0.8313307799246378  0.3154692725818694  0.8350218874402727
  0.8210699147184949  0.4997305188146664  0.6692583845209287
  0.6428397395181620  0.4815303432642285  0.4900342520213050
  0.8799297898927391  0.3640751245842495  0.4854916675704758
  0.8493748032489599  0.4786028432718981  0.3133368746837798
  0.6554829686718734  0.4630568911967360  0.1485653756426971
  0.8477304478390790  0.3274274278713818  0.1554203247673188
  0.8069333812193666  0.4888454090727506  0.9834133795370256
  0.6560379426712492  0.1771565779850218  0.8244434546786074
  0.8313692410640749  0.0000533975527513  0.8471402232541893
  0.8665329248331054  0.1558988430628405  0.6670772735461421
  0.6897811553473340  0.1706848839935407  0.5050140156385395
  0.8326167584857826  0.9915153340501073  0.4996033835133147
  0.8573501860935063  0.1880738533851301  0.3472591745707078
  0.6704878737286770  0.2020033242551509  0.1367399315269484
  0.8342677535028926  0.9996653639353743  0.1340756069418942
  0.8081882669856821  0.1743090164346061  0.0006214265900496
  0.3459052087997451  0.8083978023027878  0.8427701471350889
  0.5261656058520403  0.6701180628296267  0.8371772496943412
  0.5014931897570872  0.8310183773368738  0.6731863599635490
  0.3466386020007003  0.8431679678872596  0.5037699799620865
  0.5020665846179830  0.6542677009571705  0.5024968352758907
  0.5127454211962850  0.8416212632861393  0.3281190492578313
  0.3295938395643700  0.8307638860500286  0.1499280942983719
  0.4790129371538326  0.6830850133211706  0.1685670001149124
  0.5048182159895600  0.8601238243633746  0.0004708736859033
  0.3238766721578295  0.5005920483380628  0.8304859830820825
  0.4732810533007812  0.3242457402327805  0.8532908477021883
  0.5066995325037851  0.4544110294782719  0.6627202742144506
  0.3133228545254041  0.5170084367268067  0.5120582340546029
  0.5045325509370655  0.3274752816259239  0.4612586396295369
  0.4566026028535342  0.4756865982235293  0.3156992388388409
  0.3148261385243699  0.4872235230653830  0.1799755052364554
  0.4861472760924092  0.3187991773062392  0.1650277048503637
  0.4815241661612213  0.4991113754405451  0.0114336644918377
  0.3176907646750727  0.1858068930985786  0.8195087690325671
  0.4637523667332956  0.0134776131557429  0.7988374855159851
  0.4975644855770880  0.1827572891098870  0.6530396863888924
  0.3272246738604399  0.1978727395785155  0.4940892706802985
  0.4797185978489830  0.0101181793855025  0.5023646099270460
  0.5003055097712623  0.1900065863699713  0.3186769204967846
  0.3333767557831968  0.1736428694995515  0.1250414294140479
  0.5031448325407565  0.0034936099557722  0.1538499665654448
  0.4674615185352225  0.1633656583091479  0.0056569765742643
  0.9847160258805249  0.8656240102153736  0.8092445840228097
  0.1325953368132898  0.6594363517872197  0.8129569341721213
  0.1719002731644733  0.8463775702160102  0.6739472832432593
  0.0233803160442357  0.8448757234490972  0.4888331713647919
  0.1776799298012469  0.6880184034340929  0.4960121657105256
  0.1506896126526927  0.8458612192977116  0.3382055842887980
  0.0115824500836664  0.8500393136029044  0.1603656985615817
  0.1434306090155768  0.6771298119469230  0.1780367601682390
  0.1723494183022815  0.8302995183980851  0.9919082060056390
  0.9688701249941758  0.5062893576510306  0.8550050809296155
  0.1696822192531220  0.3404815232078088  0.8390013603243293
  0.1386947067323126  0.4993867976843263  0.6642931728757980
  0.9836685076490607  0.5890832760138506  0.4986849719889611
  0.1551955578075315  0.3267725561229938  0.5091497622049415
  0.1384874821615652  0.5005861374682125  0.3152854577066100
  0.0257988941909903  0.4732340730605450  0.1506868212445933
  0.1885019835171903  0.1650902051947557  0.0041667680975382
  0.1605967365895368  0.5084676346471216  0.0164998454841746
  0.0100633394523391  0.1372866474955039  0.8935614420511186
  0.2016166652695836  0.0160225171680133  0.8357466572489117
  0.1531204072718949  0.1622601738268414  0.6948366211777459
  0.0192302528247458  0.1449753430309548  0.4952013239203667
  0.1815120560358485  0.0123476843420198  0.4868431110394841
  0.1793820781338087  0.1803553099812054  0.2965507532888131
  0.0049182327859202  0.1535495658165405  0.1496096158211258
  0.1802845586493534  0.9958799316708834  0.1484100736101901
