Cl O  Li
 1.0000000000000000
    11.7780000000000005    0.0000000000000000    0.0000000000000000
     0.0000000000000000   11.7780000000000005    0.0000000000000000
     0.0000000000000000    0.0000000000000000   11.7780000000000005
 Cl  O   Li 
  27  27  80
Direct
  0.6685202677043913  0.6654799709011422  0.6863526388890153
  0.6783865216199070  0.7045017118098371  0.3184151201115583
  0.6605015654712155  0.6677786110209672  0.9778579852860175
  0.6678581693103300  0.3301096041265959  0.6614326545123157
  0.6595238833067184  0.3279801930202952  0.3524809205339974
  0.6638934736008993  0.3375519155785407  0.0123750373527505
  0.6683261806491676  0.0091992315641842  0.6606718122034252
  0.6659970550156622  0.9997839242290728  0.3445877635570272
  0.6683299862777013  0.0012546324969242  0.0107546126156477
  0.3495924833788164  0.6748007648886165  0.6661562087455498
  0.3154042348340318  0.6734640581088243  0.3612415988750343
  0.3276140879171041  0.6664750617919110  0.9760512074721576
  0.3410969439874375  0.3098211708890553  0.6626248283786432
  0.3359201960754016  0.3470282545109816  0.3334283449201034
  0.3350524722842853  0.3167908961508401  0.9955441517460875
  0.3151847634267793  0.9740063021471528  0.6570644002366626
  0.3194905892003142  0.9704985020011946  0.3334434459780088
  0.3255602833138552  0.9866879355076937  0.9773440963867104
  0.0007767395068179  0.6723762151438967  0.6756600777567459
  0.0114647717292162  0.6795571123038975  0.3299486441789776
  0.0281516431417296  0.6539394023723945  0.9997338707409001
  0.9873025780736333  0.3352432958051670  0.6635446164069347
  0.0081771616065369  0.3513852538426732  0.3153167919320112
  0.0237388878095446  0.3434169154594553  0.9839913971089496
  0.9815843011138269  0.9975382085032379  0.6671200448998497
  0.9977490548093177  0.0033857575910096  0.3572422881401101
  0.9869131527109849  0.0042871671409446  0.9797762497974835
  0.8197843663953681  0.8452588749730920  0.8462571337681151
  0.8300163250188179  0.8332687159670267  0.5148689119146809
  0.8526503412090021  0.8334030465571877  0.1729279655348896
  0.8345268045395692  0.4949298374798867  0.8473576891517620
  0.8650626820698594  0.4953715333022671  0.4983639009635912
  0.8289484008755779  0.4854684781491214  0.1776559124351017
  0.8210993325100258  0.1664442676984361  0.8406626978817895
  0.8450579503424316  0.1686600038200687  0.5017445946347233
  0.8382304908111551  0.1793079905160007  0.1811379815727087
  0.4979993242636983  0.8337874150391015  0.8162078908652320
  0.5057713084087361  0.8434941159540672  0.4928744842306347
  0.5001213265399811  0.8330437790294332  0.1766087977925677
  0.4950093957692495  0.4962645199891823  0.8477646484924188
  0.4740467792427823  0.5054720357996610  0.5096973461351166
  0.4987401667800813  0.5072559039321748  0.1708682703044953
  0.5107677343049256  0.1565658985239976  0.7909697721372705
  0.5110832775899515  0.1515042202683468  0.4804318602831467
  0.5003646033682748  0.1636087201934183  0.1773242154715121
  0.1508771968194833  0.8315917293167389  0.8234470870155376
  0.1564588190735646  0.8402271053140298  0.5028919511522542
  0.1628564854929813  0.8415842572258386  0.1644734985918888
  0.1687182870265111  0.4761248099050344  0.8276123069603717
  0.1688929714490240  0.5106504436135043  0.5078731950197185
  0.1744269727396704  0.5081551658576298  0.1828254944295793
  0.1734071452634319  0.1485344939934551  0.8279540038202150
  0.1627336932446514  0.1820680226101389  0.4862086424558150
  0.1602363709755751  0.1636125460646571  0.1728289382221909
  0.6365678461659190  0.8128192115260634  0.8384042597740290
  0.8481388900384120  0.6881579137611047  0.8594639603135180
  0.8172677933138680  0.8493779415506010  0.6691576350964199
  0.6874415288911644  0.8377616248198667  0.4767872827100645
  0.8077022245379325  0.4707722338576549  0.6906985857037949
  0.8544396343864469  0.7946156756866012  0.3450082045391922
  0.6726456095204403  0.8557420860505923  0.2043600685848896
  0.8505401606724200  0.6675341196303755  0.1740863948120372
  0.8259536951027567  0.8657909696503204  0.9941521615064458
  0.6621793618297022  0.5118410385488447  0.8704850605474022
  0.8699447366829854  0.3462834849098350  0.8390382612935960
  0.8278454973381547  0.4838142442992165  0.7036387753393725
  0.8603686417004672  0.6635371165638175  0.5412193267951702
  0.8470415734875598  0.3355623410781522  0.5280582487629925
  0.8266149028177995  0.4822367303011367  0.3329643821222593
  0.6768453635199480  0.4931621230259368  0.1480059568876931
  0.8605623239015915  0.3263912216512040  0.1955257067977728
  0.8597194986375848  0.4878276034713878  0.9990486001429123
  0.6552139685067804  0.1837299284452264  0.8530491280802892
  0.7938762141329981  0.0068402991801995  0.8238224677364462
  0.8122353758882471  0.1804899215736151  0.6579544314886525
  0.6581593630503016  0.1824226343157512  0.4978786428401218
  0.8323481226893787  0.0193857971869146  0.4821697774753852
  0.8349237234985627  0.1769811523081566  0.3391899248213415
  0.6651279547206083  0.1505488354433708  0.1987220299120653
  0.8356652542669144  0.9982302227686102  0.1444818335305172
  0.8498912605219970  0.1674761497054824  0.0117509509631101
  0.3444387716650330  0.8578187446677490  0.8220722834649975
  0.3480919726304311  0.4993733136471973  0.8263334538313752
  0.5116407211993333  0.8394336722501424  0.6680373633181351
  0.5323392918822109  0.6794640768318690  0.5024304174790060
  0.5004818491154438  0.5222692299542446  0.6691969059440559
  0.5170985997979514  0.8562377084390050  0.3401064335314283
  0.3287639545300508  0.8260860374489889  0.1675469484870315
  0.4992816186525392  0.6721435454930058  0.1960622599356286
  0.5203293355106876  0.8119950905214460  0.0272773789493315
  0.1852924673004731  0.3282398866823171  0.8381298496654961
  0.5084023742295294  0.3148382848297213  0.8301875029154560
  0.4876983785017209  0.6638364656848698  0.8453018400353113
  0.3132110187216749  0.5122298604258512  0.5048468701417390
  0.5202746397218667  0.3493745864437090  0.5137543890646068
  0.4895060115698658  0.5108725465724026  0.3494186446119966
  0.3423968900150096  0.4801720958507303  0.1554169022682916
  0.4960963480551586  0.3273797134201535  0.1599808630155658
  0.4818859286829006  0.4913305225951108  0.0005429482528041
  0.3601050868639291  0.1931456607189960  0.8468091118471558
  0.5242115624400826  0.0022414567730521  0.8245210029994480
  0.4948398833578558  0.1278479575986806  0.6483202399428787
  0.1753028948262983  0.1496284502552828  0.3396223899702570
  0.4947147429557496  0.9915203404587964  0.4663811963384883
  0.3137912758595546  0.1986028308229401  0.4694886944633855
  0.3481597856920706  0.1721603926056707  0.1560257825909946
  0.4922183316083968  0.1995085501712794  0.3380587827104893
  0.5093186805125665  0.0271969724739375  0.0756889035143664
  0.9870821097131612  0.8660657846129527  0.8291613597152679
  0.1885425145537480  0.6762147178305629  0.8427773318134643
  0.1670450857620522  0.8325130962760178  0.6562080123603277
  0.0050292988953509  0.8502129936159006  0.5096689658627528
  0.1462571232940404  0.6823299580302797  0.5068566873470945
  0.2986174049443913  0.8462008894914371  0.4831554757510493
  0.9993822301178944  0.8459311756904565  0.1407223279999848
  0.1621277582355211  0.6825164338284361  0.1934314775127048
  0.1756017581224315  0.8376790345836012  0.9886794026219236
  0.0294906930146217  0.5095841388866617  0.8524611989572273
  0.1868621068863208  0.1899969889321959  0.6459586045251963
  0.1092649261066915  0.5021604102378765  0.6474788316682196
  0.0160922604105223  0.5110023832820609  0.4559691990970617
  0.1461120843129518  0.3449620006441781  0.4955924722265566
  0.2009892882557544  0.4942387515323126  0.3354727973936575
  0.9987049238777517  0.5231137960908787  0.1899545702648645
  0.1486058742300113  0.3129785875244012  0.1386507705444799
  0.1700177269864591  0.5219933623709541  0.0273932633745915
  0.0076463017294530  0.1670917204954537  0.8137932600459459
  0.1659080125386447  0.1458882360225840  0.9892273104091843
  0.1827489714213670  0.0078521004239185  0.7851891843360683
  0.1653805584966716  0.0066381783014419  0.5125295434724623
  0.1400020262457064  0.8439252858127771  0.3277358128855078
  0.9916015194297257  0.1923883001553599  0.5142209024432767
  0.9879383394433634  0.1629920666720080  0.1993497157076826
  0.1510610511873463  0.0146966163318834  0.1587290541404053
