Cl O  Li
 1.0000000000000000
    11.7780000000000005    0.0000000000000000    0.0000000000000000
     0.0000000000000000   11.7780000000000005    0.0000000000000000
     0.0000000000000000    0.0000000000000000   11.7780000000000005
 Cl  O   Li 
  27  27  80
Direct
  0.6585407880885742  0.6367061674170532  0.6610417582383455
  0.6804776860051039  0.6767184243651942  0.3528684372368292
  0.6523796374339921  0.6664378427644138  0.9988114744143015
  0.6463894566655614  0.3189670144844368  0.6639170320518611
  0.6795622299156754  0.3296552031924333  0.3336821383139230
  0.6771601900588791  0.3367630241875031  0.9875189824489704
  0.6812556536423966  0.0111166658406693  0.7008343413521845
  0.6662124898732052  0.9849870748331582  0.3417578642469908
  0.6617688112788450  0.0272346312121132  0.9940272385611292
  0.3387252396939657  0.6344680124996697  0.6598876406573559
  0.3420126549806097  0.6673894928103232  0.3474025830124544
  0.3176170983614905  0.6554638675476927  0.9920576885240447
  0.3379699843716462  0.3433103854101510  0.6386306952006683
  0.3132928112410258  0.3197744352574563  0.2954769678808929
  0.3547480289273309  0.3511252031188989  0.0100620007218979
  0.3531539159111781  0.0186526377581583  0.6654950723602702
  0.3277744423744320  0.0386892011391468  0.3340521547180152
  0.3169755260702658  0.0246538836951916  0.9948132956893941
  0.9701889543552749  0.6474097405808247  0.6813493613174899
  0.9742802934876554  0.6702957784478482  0.3234238844167210
  0.0097882677131029  0.6677385580147746  0.0049326283304991
  0.0014401103959127  0.3244742650404692  0.6461704550343242
  0.9776723205432309  0.3560100107399004  0.3441544385734463
  0.9978104501149301  0.3462108411486455  0.0168873948646832
  0.0354541097363412  0.9917351797980413  0.6735070540153969
  0.0105571957174586  0.9761303056368118  0.3528683967514193
  0.0109679581563113  0.0001028472873125  0.0055942845479738
  0.8273268507427736  0.8330638873424023  0.8471416493632969
  0.8256548033124977  0.8383723342929537  0.5197119694369836
  0.8558612915475647  0.8292205264065442  0.1644516268294676
  0.8248329494908367  0.5023708404629457  0.8414228422976542
  0.8190454791699460  0.4838356886307136  0.5037054148530019
  0.8237683451512112  0.4942670378980887  0.1474749203672365
  0.8504798089174922  0.1456749763113410  0.8288639442528355
  0.8408561030928914  0.1564886900328381  0.5025514996990619
  0.8289407611243842  0.1651072038568915  0.1624221539575890
  0.5055567477273697  0.8383316869413800  0.8371438583509058
  0.5024703829864581  0.8380382486901780  0.4807965027293657
  0.4967119002190798  0.8227519295489228  0.1568061798331787
  0.4958492775896153  0.4872040747372258  0.8238955747457301
  0.4937511617051935  0.5057929507084404  0.4989799578055007
  0.4967580940718145  0.4978958666467064  0.1756279886104488
  0.5083872446774981  0.1709507970773035  0.8306678121778566
  0.5075089137089790  0.1555776468530923  0.4919980464353258
  0.4990639810800178  0.1577840409663826  0.1729610324737489
  0.1773617720970730  0.8236701386462268  0.8380737272462708
  0.1692330305196966  0.8155613968613580  0.5003397007835454
  0.1734096471074269  0.8431102608467147  0.1699962656615742
  0.1604169074097550  0.5065127812970677  0.8448569767098992
  0.1455749864919934  0.5179767514302202  0.5022999233617317
  0.1662967249507054  0.5078408646845439  0.1683917883804782
  0.1899622081724840  0.1873157689954313  0.8291531720214043
  0.1731604391665779  0.1742704185075501  0.4910011337011100
  0.1475838826542729  0.1787924970982476  0.1480390744333148
  0.4870118389113434  0.0063331828364677  0.8908393336631436
  0.8171603165417773  0.6675179935014538  0.8234644861007524
  0.8330003141492904  0.8229757328950382  0.6671967146252078
  0.6648485768979373  0.7798675161638312  0.4982468884878251
  0.8820310605289281  0.7076935281078590  0.4806818075630225
  0.8287331519422424  0.8328757111570291  0.3194573871065484
  0.7004125399149855  0.8042606234156493  0.1169229195224401
  0.8461579104362136  0.6617291871620352  0.1763401067284836
  0.8736267752515408  0.8272116403656171  0.0142507205494449
  0.6569538814753897  0.4807345872005861  0.7997575255764964
  0.8531183240537135  0.3521334112824863  0.8504562708454169
  0.8133904771103591  0.4965819531527071  0.6448890513245019
  0.6593904149014499  0.5118497299762126  0.4821777029746753
  0.8370909599690258  0.3300081954816483  0.5078306756982309
  0.8103875932847316  0.4893740522242804  0.3135739258787038
  0.6721159508935571  0.4649186784119837  0.1491652165960401
  0.8374405919692161  0.3447392369829531  0.1635823848354788
  0.7903899060186323  0.5117230916139388  0.9974882110046533
  0.6648364312749572  0.1492486032035137  0.8540155861451778
  0.8848355658458790  0.9916322937197084  0.8299806938004560
  0.8363905623771668  0.1699958272277794  0.6606642317907108
  0.6642440487568022  0.1541008706762808  0.4815116774958504
  0.7996098913353707  0.0082603271798968  0.5092603774646417
  0.8440233576828514  0.1895348350420309  0.3273753009116933
  0.6806582509334097  0.1542901197250175  0.1294909571485514
  0.8203476518950643  0.9897911937669922  0.1378994124231621
  0.8443940420962073  0.1755102032159602  0.9913555241235930
  0.3902412234478145  0.7605311985544144  0.8152663525307490
  0.5192019907769485  0.8879089863551275  0.6953278397762358
  0.6714675770534636  0.8422838726591411  0.8286276714004606
  0.3332880288971191  0.8194614373711238  0.4840424609562373
  0.5130650099120970  0.6721237756771899  0.5036278852929783
  0.5357691468322868  0.8289823102544923  0.3050076179907603
  0.3310766145929969  0.8348400632470285  0.1744940327636063
  0.4969457844322688  0.6553748401312478  0.1776062271960558
  0.4980426961290216  0.7980929141246579  0.9905753259932469
  0.3411136764530243  0.5141383297143738  0.8287326095830094
  0.4899892574141226  0.3337099384535572  0.8463196335999964
  0.4759051120354488  0.4717275551401005  0.6520173579369983
  0.3495561799573896  0.4887853943638394  0.4898914286148179
  0.4983116407072135  0.3301071418235271  0.4983863202396379
  0.4834986364934972  0.4718331815746184  0.3383944780886056
  0.3327213748569773  0.5063461433497790  0.1663625078142968
  0.4788138267975698  0.3332400040577479  0.1683530134791139
  0.5067235372416686  0.5168897991443111  0.9760494949135452
  0.1917898005477265  0.1601281664442685  0.9865513771131273
  0.3350639821319907  0.1574505727661084  0.7956312525960190
  0.4870298954041740  0.1663114322540271  0.6829535552007163
  0.3391505996534376  0.1749510592193612  0.5208324436423181
  0.4807000420463967  0.9865036937140209  0.4960880849739123
  0.5114940140650164  0.1407985795342532  0.3246499850565735
  0.3321205106454412  0.1764711041780397  0.1916631056511390
  0.4870020819275493  0.9999386458974883  0.1437751308163568
  0.5018185678865200  0.1845913640620349  0.9917338507906586
  0.0048656637990053  0.8073501460185358  0.8119446056164809
  0.1602342473614851  0.6623343225843192  0.8474336301397413
  0.1898066429848125  0.8214236842198068  0.6710483345846927
  0.0054829555982066  0.8431494507235306  0.5035277243888013
  0.2099161914385595  0.6607068495903808  0.4765665870994571
  0.1356006264106013  0.8378900720898194  0.3413299334639880
  0.0195318331241516  0.8474810657031935  0.1448751092829121
  0.1798137911924331  0.6658782939137153  0.1808507481908747
  0.1720341148195079  0.8142135565938338  0.0002053269828001
  0.9863237705134348  0.4966293210823300  0.8809479383080591
  0.1723336866103149  0.3343577050125019  0.8182072127083578
  0.1644035664540748  0.5536657738785548  0.6738166054597525
  0.9933422408413647  0.5057191458061305  0.5346751340361452
  0.1583805621395402  0.3400919572620345  0.4686987335036956
  0.1555982225845282  0.5014613357287776  0.3214872445898213
  0.9887951226572075  0.4994724899657678  0.1604652916684272
  0.1392040606858380  0.3418006439883007  0.1769535416598041
  0.1658342499916765  0.4976857473691488  0.0146219553113423
  0.0073400846103341  0.1571994620109925  0.8104547425309082
  0.1660214950126214  0.9701628700777498  0.8570973355493571
  0.1591003927281674  0.1826524165667689  0.6586137267483715
  0.9989465987369736  0.1771864408861642  0.5091144680472393
  0.1717051911064988  0.0232423573475031  0.4901722354181204
  0.1658034203520117  0.1753760548101438  0.3400663433345367
  0.9837442274374587  0.1777203422296694  0.1421192269432921
  0.2083732722232683  0.0079671735917334  0.1522388486755274
