Cl O  Li
 1.0000000000000000
    11.7780000000000005    0.0000000000000000    0.0000000000000000
     0.0000000000000000   11.7780000000000005    0.0000000000000000
     0.0000000000000000    0.0000000000000000   11.7780000000000005
 Cl  O   Li 
  27  27  80
Direct
  0.6410285764218699  0.6776685697663335  0.6713236434347682
  0.6695722883855357  0.6629260101659025  0.3315705083651075
  0.6384857687947326  0.6618197463394547  0.9779048227964405
  0.6719858665841635  0.3167186505591471  0.6541333359497252
  0.6850691721438578  0.3164232082801535  0.2850185014513862
  0.6615590921681110  0.3520444176668485  0.0043220107696014
  0.6801287375696070  0.9721811040941069  0.6648236298990383
  0.6968997376639633  0.0059891452980175  0.3348767088819610
  0.6492884502420228  0.0110560765356073  0.0052455399028046
  0.3255845413784141  0.6696271552181847  0.6742711837050160
  0.3341223475377641  0.6741797800506775  0.3531661750040084
  0.3138970108116058  0.6715639367440193  0.9825421114772886
  0.3502519575252404  0.3571829473519067  0.6631887075896720
  0.3343865755656987  0.3454671174835544  0.3109295281778613
  0.3526174795422765  0.3319716906934365  0.9997631896134891
  0.3017715698082458  0.9622220449673319  0.6684117708106723
  0.3530595802187561  0.0171192853925446  0.3142965377804357
  0.3334743178236549  0.0237931673167436  0.0080838555977266
  0.0132957494098584  0.6609087841305289  0.6815882332986251
  0.9949049982809243  0.6499388169693916  0.3481810040517803
  0.9980661168009408  0.6566591521059826  0.0227208709996286
  0.9863486314588730  0.3058777306421744  0.6636827105616872
  0.9983575242976547  0.3483490713897090  0.3723377169949936
  0.0008254499682462  0.3572046880170412  0.9843300901440797
  0.0063011009501676  0.0002228837177443  0.6603435144357374
  0.0020853499949136  0.0017264564124751  0.3301377499502468
  0.9982658250023002  0.0160205758905569  0.0034472327120964
  0.8132641174586795  0.8393100911586530  0.8490409089766470
  0.8289855737859058  0.8108222895461060  0.5029130829577069
  0.8164021415826670  0.8023259404465285  0.1733688298278336
  0.8388350262562988  0.4907589704427012  0.8401900696276868
  0.8188439785974285  0.5051428697965267  0.5188823504791393
  0.8422532094170296  0.4993258856117938  0.1519837682914097
  0.8449611165458780  0.1696840019158646  0.8582791936986756
  0.8476031943981734  0.1520132135857243  0.4967641993823349
  0.8492023680905680  0.1487747046742805  0.1803116525347172
  0.4911858395028574  0.8505704601652473  0.8354682562670799
  0.4918023918107429  0.8442029148908214  0.5211590475067801
  0.4832289180052410  0.8309103402471782  0.1574499463990641
  0.5148431649145343  0.4802386747297012  0.8316776073349555
  0.4997513376826022  0.5038727210306660  0.5093024903534972
  0.4954858353773617  0.4966685852453632  0.1488682844194030
  0.5051431845776178  0.1685743373149825  0.8477354974187338
  0.4969809615662258  0.1376833723755133  0.4921221017938878
  0.4850146484666117  0.1764190130135567  0.1529827963882945
  0.1457663765801809  0.8542171429796460  0.8374895308434466
  0.1598717160709551  0.8335064266737886  0.4810878438017751
  0.1822795503971902  0.8594093158328668  0.1526916354414014
  0.1789073586621443  0.4891507280184814  0.8376194890093350
  0.1778402442271028  0.5035561251249818  0.5089875138642103
  0.1802692473669154  0.5029779934711238  0.1584464137937706
  0.1878570431394582  0.1755179090019498  0.8023681948132073
  0.1810318507911380  0.1616554111213125  0.4989842168360680
  0.1507557883790995  0.1858483483850642  0.1831841935830622
  0.6530813663571032  0.8089512968114143  0.8461850681598996
  0.8633258652876975  0.6501952515559137  0.8375810278698975
  0.8226923597241188  0.8579862536736853  0.6655650796965702
  0.6558628354758016  0.8309074252976628  0.4763505650145733
  0.8280974048627726  0.6634477051583124  0.5556287303787213
  0.8319878908157942  0.7894019449749246  0.3388265464459458
  0.6434241386130769  0.8321618252390591  0.1694510364658116
  0.8627416608223495  0.6487098013800238  0.1731226987781397
  0.8221028111846593  0.8207481784704547  0.0137767191066160
  0.6607069957452293  0.5099655727986895  0.8552014118646701
  0.8492417199090238  0.3201576837059942  0.8555320157221915
  0.8268642192761819  0.4610998044645327  0.6875639607757092
  0.6534311198135234  0.5143361347427088  0.5132017211550643
  0.8493958073792327  0.3242489975349934  0.5145832047982436
  0.8581929630746203  0.4875164939610840  0.3485029440315758
  0.6729983662012039  0.5063536669514240  0.1355926529198170
  0.8545117057201378  0.3428049588679316  0.1660750795876418
  0.8664649420323433  0.4930997558742676  0.9980818751361378
  0.6655651639664943  0.1812785779814644  0.8577719924830220
  0.8268846239227885  0.9971302572597874  0.8544173714158874
  0.8054190166633010  0.1779150501241444  0.7018446223342026
  0.6746009001826231  0.1801253713221982  0.4936441912657681
  0.8575887588167646  0.9944107728851594  0.4945090405927791
  0.8589747363404465  0.1697515720650445  0.3406927416595603
  0.6920422172092573  0.1853391026562089  0.1412527662624079
  0.8290324558906094  0.9919550215410710  0.2077943026321268
  0.8386689551047494  0.1415296685035918  0.0082422876584891
  0.3197469298773200  0.8569259407875129  0.8267513426541817
  0.5028586738658598  0.6588807889761130  0.8193277759470362
  0.4733412068224603  0.8450297079324944  0.6555622684933471
  0.3175834502985597  0.8581195316431883  0.4816581212861061
  0.4391354888232891  0.6563499245449064  0.5254915936508714
  0.4800058745203920  0.8169861932085638  0.3192590369031006
  0.3400576098476192  0.8816202594892402  0.1235620388678751
  0.5118576493297683  0.6698882051414395  0.1445629748348448
  0.5171156109741321  0.8326175290132767  0.9855504620984266
  0.3370340379775153  0.5130583747197806  0.8059208705057390
  0.5120662301617485  0.3228855298992349  0.8442577197345799
  0.5208137102591469  0.4819856606537649  0.6557980555208029
  0.3387743640516449  0.4995129686910991  0.4967780453925323
  0.4565868057461769  0.3273976490790886  0.4910970516997679
  0.5456673390489647  0.4944116450977702  0.3095164456722286
  0.3332373364766060  0.4972302393373781  0.1739325284330503
  0.5148155538649594  0.3387134426118826  0.1459839013886523
  0.4939468230041291  0.4809770881214882  0.9812902279571536
  0.3389321154514530  0.1647400349895969  0.8572064922770632
  0.5218120399827104  0.0075756881750972  0.8161192262389436
  0.5219098527331111  0.1739287554485140  0.6435369681514590
  0.3234157177255427  0.1193651413697078  0.5106921925348930
  0.5223764875680108  0.9910272142386900  0.5199846872208235
  0.5111435676693518  0.1493945059363132  0.3448571114107856
  0.3392220517146956  0.2132368294189673  0.1697765189189763
  0.5079627504670640  0.0091236680666302  0.1604642875957030
  0.4758202904143614  0.1608087195006569  0.0032538228386122
  0.9743909784414775  0.8538284830442793  0.8275225897134250
  0.1558386303827934  0.6630595715332748  0.8372786018576904
  0.1539489536314171  0.8134942456309330  0.6661394866927145
  0.0060743168657458  0.7990199018713148  0.4507890488320587
  0.1865415911998814  0.6666896148441908  0.4952543769896647
  0.1795541130858405  0.8486668361901487  0.3019629410418999
  0.0264359572132151  0.8254070775040241  0.1573657165036963
  0.2000320990126923  0.6581340355898796  0.1684069987144325
  0.1840300585519182  0.8397690337656653  0.9956453383890087
  0.9982990522954805  0.4897006413416156  0.8354011314574092
  0.1827055783659261  0.3224607367355019  0.8166014074712582
  0.1580278485609191  0.5106515170992018  0.6606499080181182
  0.9979521548000683  0.5077673364955008  0.5346881379152582
  0.1506047474359881  0.3170304489437541  0.5156969584255292
  0.1649585458875275  0.4967148600689177  0.3416800998370317
  0.9986915107428053  0.5055768733910195  0.1669778839864659
  0.1571501349949017  0.3421672731760605  0.1429546413184527
  0.1905353351909397  0.4895216553442971  0.0079524734840608
  0.0518936409709394  0.1704385892289202  0.8558542795852663
  0.1787440607611753  0.0193564648645826  0.8514580498913488
  0.1796110153295028  0.1377545963329398  0.6619240243541524
  0.0053867341713001  0.1575383182075377  0.5200146869095845
  0.1218220298547766  0.9957465235134342  0.4824022431206937
  0.1702373575180071  0.2172899857491038  0.3443373597180524
  0.0023444972620475  0.1507593197119521  0.1631032986781960
  0.1877448378258260  0.0494629920921842  0.1662101186724768
