Cl O  Li
 1.0000000000000000
    11.7780000000000005    0.0000000000000000    0.0000000000000000
     0.0000000000000000   11.7780000000000005    0.0000000000000000
     0.0000000000000000    0.0000000000000000   11.7780000000000005
 Cl  O   Li 
  27  27  80
Direct
  0.6830361885771968  0.6695068596243138  0.6757274702580321
  0.6683640735900511  0.6932681515687015  0.3275609002083389
  0.6820406523469189  0.7051017130091418  0.9853336144409439
  0.6709902406762424  0.3477576470804357  0.6689548684572163
  0.6381641844768035  0.3130122383241388  0.3480250401249931
  0.6647488884245809  0.3272071315416871  0.9799477087798363
  0.6465925585731017  0.0086859263734665  0.6489934966038279
  0.6626885859130376  0.9976724399269882  0.3304126115132727
  0.6630909704023722  0.9978233818706207  0.0262015267325335
  0.3334558275271969  0.6764435892770024  0.6561383617489872
  0.3341517312385531  0.6675505641308912  0.3473816459903215
  0.3661091122397423  0.6527496245693352  0.9864443620265417
  0.3495713485920161  0.3505356344538797  0.6464528751888271
  0.3312884208636731  0.3471562768012754  0.3334927415010545
  0.3421202113207057  0.3296272278913142  0.9687511789388626
  0.3369593741747738  0.0128094811382175  0.6576366053144164
  0.3384238326656129  0.9662935226865353  0.3395857349680126
  0.3131640542433367  0.0066445511073596  0.0092679005419794
  0.9764542732272091  0.6562737985332735  0.6659021066065500
  0.0013878265420819  0.6388935739902297  0.3361282809596457
  0.9916807751752867  0.6352472960299305  0.9875066523719557
  0.9924449455113905  0.3265033331753937  0.6701697141531071
  0.0081764289360052  0.3549742523719983  0.3481337839360760
  0.9970718613874044  0.3126404203193045  0.0025714133677392
  0.9630806316108489  0.0145586924946586  0.6560868238221412
  0.0223732123161298  0.9793025400493388  0.3261811574377868
  0.9992711091141838  0.0122576068030398  0.0155017870310152
  0.8377725589365764  0.8358081302438116  0.8340804022868196
  0.8280745218993367  0.8429010930934357  0.5025276072420037
  0.8238339181212057  0.8439427017202186  0.1759662179025457
  0.8293781520992128  0.4759069653382617  0.8452240113711641
  0.8347761527765383  0.5077597522828863  0.4919163003274719
  0.8333310665543526  0.4912473729871887  0.1714261435471325
  0.8285320070315914  0.1569406793878394  0.8611338867962235
  0.8172455654209997  0.1774185033730514  0.5091147453799117
  0.8235800746009192  0.1649950189031096  0.1810226026908477
  0.5068782995697476  0.8476662258426721  0.8394964594569757
  0.5064649030489111  0.8439428636618583  0.4893847476442965
  0.4924543601454975  0.8388552241370872  0.1561381037759551
  0.5019192012215171  0.5001951748929406  0.8385652950284926
  0.5115166320150708  0.5177102968218845  0.5093301682461708
  0.5244247976913905  0.4869036123845457  0.1569778015420446
  0.4939234542157740  0.1552718303049483  0.8344671998933295
  0.4823428456166014  0.1619258300973625  0.4992770741638096
  0.4917975653401376  0.1628678243730028  0.1569707672020685
  0.1808932200407007  0.8412789236881985  0.8321030138948213
  0.1627070828061575  0.8383141771187287  0.5327008974409247
  0.1635391490724744  0.8139856845811653  0.1446396704375962
  0.1586945333421848  0.4947087135949093  0.8323800150695900
  0.1678065643133343  0.4984900508827487  0.4991279663990226
  0.1790172880859970  0.5105420715951933  0.1640244592040565
  0.1863506330571043  0.1572626699743973  0.8105131164268361
  0.1753114156022747  0.1572093102041043  0.4965850778010654
  0.1805327177079430  0.1754518233719806  0.1904158858048089
  0.6745730779991751  0.8570150357338210  0.8393728979858570
  0.8302549041367444  0.6785513406889884  0.8546569499441559
  0.8225917447736094  0.8545263166143555  0.6789913230360947
  0.6500082316384168  0.8433660275411181  0.4777186743447530
  0.8426162333810852  0.6538164556065071  0.5044897731198669
  0.8184398040432340  0.8243674392213712  0.3427772808039330
  0.6693919576628663  0.8286929004187241  0.1453146735560739
  0.8266356704302810  0.6952928269195027  0.1769862275631289
  0.8212611512907174  0.8742853828743037  0.9950047128659643
  0.6641628216303759  0.4945354360403917  0.8331752294915142
  0.8450579084542071  0.3166067354451325  0.8658710846126055
  0.8387388647008821  0.4579329817731252  0.6706713283821898
  0.6676971574322076  0.5155610883501262  0.5062841674589635
  0.8196157432601782  0.3336662750560887  0.4944845327920477
  0.8220640579405293  0.5137356012162002  0.3298305932600610
  0.6732094079363670  0.4461604318454555  0.1764548970431545
  0.8658378548110519  0.3392779982124560  0.1856601659133821
  0.8174347132562115  0.5035535206177891  0.0051829536762767
  0.6654151163304555  0.1509033229954831  0.8696167137688831
  0.8554314850416063  0.0040795117713462  0.8279628949041463
  0.8052581594228099  0.1879105402699175  0.6845043832484525
  0.6387081869300871  0.1669464257832828  0.4848090461281413
  0.7864778684334270  0.0074878232923371  0.5008827255217936
  0.8443857696784822  0.1631501392578253  0.3564686367354266
  0.6637144862007663  0.2008033619758723  0.1740377561284526
  0.8146320702681177  0.9996778075327583  0.1609851587521932
  0.8328487233803985  0.1869199837450614  0.0171651705835652
  0.3371852422767959  0.8276197941430125  0.8355692127517339
  0.5123031015884494  0.6551846195498181  0.8345627454607737
  0.5225883390113726  0.8429390684079537  0.6736698802689546
  0.3218485390428778  0.8299010660219756  0.4934896848137385
  0.4899224430936325  0.6841114854330997  0.4812504595657590
  0.5114659037964234  0.8102709053072575  0.3406893267574047
  0.3274257483872762  0.8344493589156053  0.1802699384347639
  0.5054932532104943  0.6766224943035010  0.1529250905514174
  0.4957845685104419  0.8462064839020905  0.9956255547295492
  0.3542938906900019  0.4971686880733215  0.8354607118531109
  0.5008293339860928  0.3198480985779766  0.8278118033542725
  0.5181373325578141  0.4822504217937768  0.6802026465013210
  0.3333714356901894  0.5133852404786311  0.5224710035733814
  0.4748522755560152  0.3405576003215361  0.5049907800678006
  0.4866758371002021  0.4924796678947610  0.3347751978315351
  0.3214357700458952  0.5095445515798284  0.1757277993234441
  0.4868306533077897  0.3413206693279729  0.1533102889842348
  0.5230713299518855  0.4952284652876425  0.0021790177044292
  0.3276592277463658  0.1422679874836020  0.8666541534115497
  0.4737359713479040  0.0052431505402464  0.8033714091436516
  0.4962280456908594  0.1663558347445175  0.6690206977337690
  0.3252256092698207  0.1169219447741090  0.4883218841772981
  0.4896360088183493  0.0013407984282291  0.5018571688534960
  0.5131537000511636  0.1141744732784027  0.3288550568222904
  0.3240399940399024  0.2144274716414655  0.1379610757586471
  0.4779918381255802  0.9993370288693605  0.1541103818980562
  0.4963816473361490  0.1847050876956849  0.9953811556962989
  0.0241610632008457  0.8623051832790821  0.8213854732646224
  0.1316429516470480  0.6388179067590631  0.8424491413742849
  0.2176064423895466  0.8388889889689722  0.6715073116119178
  0.9815361802709672  0.8354739636702161  0.5301979274571627
  0.1611272712610638  0.6439514162532894  0.5394766166183056
  0.1556851212442053  0.8412692071898145  0.3562697724018306
  0.9944659869803582  0.8335622426131308  0.1766532755518313
  0.2024082195003079  0.6700587162471248  0.1729031727577560
  0.1550643786963916  0.8530596921540849  0.0065210793431702
  0.9867824580790577  0.4825636978958464  0.8436552827070400
  0.1936838565719819  0.3329850877912435  0.7843980027488835
  0.1287166864597205  0.5066115455717469  0.6687777043033449
  0.0018032792789338  0.4820715167672782  0.5096969255747633
  0.1955224204933164  0.3343722596345184  0.4997940728486672
  0.1655357882768964  0.5092878335954366  0.3424915752660285
  0.0006276939930344  0.5156761478851587  0.1674671360377976
  0.1320624108580220  0.3292279000504298  0.1490878530338116
  0.1984909119632051  0.5085539545695624  0.0029614164382098
  0.0074769764254344  0.1684198517924223  0.8469333053785792
  0.1872657045351384  0.0100880284768237  0.7994963886172248
  0.1667173752085263  0.1415311530228025  0.6582761533351443
  0.0038954877727201  0.1811208536261095  0.5196859717386089
  0.1816918757224695  0.9850769057491018  0.5050217514064002
  0.1817073411490643  0.1664771290326799  0.3348568569033721
  0.9947324799772029  0.1631183885750845  0.1602725952946491
  0.1845658135174572  0.0243810526347914  0.1624372185862399
