Cl O  Li
 1.0000000000000000
    11.7780000000000005    0.0000000000000000    0.0000000000000000
     0.0000000000000000   11.7780000000000005    0.0000000000000000
     0.0000000000000000    0.0000000000000000   11.7780000000000005
 Cl  O   Li 
  27  27  80
Direct
  0.6520633267126429  0.6727603561735995  0.6516700840098612
  0.6834866849140973  0.6936320019839449  0.3422453185018736
  0.6586120441965236  0.6668308630346600  0.0140268208484053
  0.6510158881868294  0.3640189438998888  0.6606164689262654
  0.6572197914343019  0.3340813192721939  0.3372926978192325
  0.7028508564855487  0.3250566153302721  0.0290110479820852
  0.6564452650568537  0.0137904455964094  0.6456098634822445
  0.6778497393473411  0.9945965240299142  0.3311652512684206
  0.6723807272609913  0.9654135727467710  0.0069339117684664
  0.3310435802849563  0.6689809217000272  0.6586598900349731
  0.3239487753491803  0.6443146189019742  0.3309336544808928
  0.3370409472136502  0.6730276813353941  0.9979516360617172
  0.3227819655921764  0.3356596024930625  0.6861318722268650
  0.3337193622410219  0.3250703398842398  0.3043279183626545
  0.3271879927552979  0.3303921672627744  0.0012737838764313
  0.3444091501227108  0.9921997422157328  0.6631513414130555
  0.3337088562771440  0.0081449841767075  0.3471037296355982
  0.3079341641686217  0.0217726616190512  0.0018940814010280
  0.9912332924681595  0.6649665099071975  0.6654319655254598
  0.0066109435313030  0.7036225056225481  0.3364907223338491
  0.0075861896127743  0.6735278785751291  0.9856695884784030
  0.9986191115912175  0.3306814355167531  0.6679026281520946
  0.9958289608824265  0.3385728111356862  0.3225460491923981
  0.9923593182353312  0.3411788569731404  0.0089796977302103
  0.9900612069561735  0.9798238660575352  0.6613273927247071
  0.0129774406131623  0.9758938840567851  0.3398864765774767
  0.0283963304944155  0.9765395858598230  0.0108241642977963
  0.8361723882894979  0.8394257930554541  0.8528885227373011
  0.8306597329312393  0.8367497074588142  0.5114848177473343
  0.8315214243962754  0.8349668919469586  0.1634378618412911
  0.8446140820856647  0.4998244580303410  0.8455577485897244
  0.8445646898855450  0.4812503592337525  0.5008846443205345
  0.8332399490771557  0.5365684088053269  0.1688294455811421
  0.8397644158004859  0.1618408693794298  0.8444696627123371
  0.8478982585395138  0.1611471620015625  0.5134588053648983
  0.8520436406334803  0.1274798493477516  0.1587091457182903
  0.4808405282053335  0.8236947821714834  0.8298050375260293
  0.4797405801028354  0.8452443561711743  0.4936637475755189
  0.4977253327870143  0.8392978591600625  0.1652216186389275
  0.5007883374463939  0.5036184672514897  0.8360610050106767
  0.4803485090184050  0.5011769541200075  0.4876325550868251
  0.5123173271479006  0.5003246147846662  0.1643655850099297
  0.5063539477208464  0.1810062474667526  0.8239145723222662
  0.4966220243954919  0.1800839695857502  0.4919336845528076
  0.5019884059676587  0.1655941806422423  0.1615510899180777
  0.1694852968954611  0.8244188232427440  0.8190487118731136
  0.1631015675784142  0.8425154775999802  0.4911211018900215
  0.1763090115263187  0.8321989854405881  0.1706004191105917
  0.1567210264873995  0.4911040221867786  0.8362305579074805
  0.1657664184737975  0.4810950976866554  0.4965876443663652
  0.1634764725957558  0.5024228926107276  0.1687823104426263
  0.1553319821939151  0.1688104428209273  0.8192788309431787
  0.1718407380454235  0.1500927119112452  0.4982421211287297
  0.1633919997879285  0.1734959205261186  0.1771806949715160
  0.6555843023291965  0.8206918983458558  0.8624566825794724
  0.8381268619394738  0.6949595995465020  0.8668295926772678
  0.8082593175563746  0.8334111186140133  0.6655095355708934
  0.6569397133683783  0.8294469492149120  0.5171175123460474
  0.8751481782579176  0.8354648624891473  0.3313568889563433
  0.8059312445435277  0.9681567651978024  0.1810355740065006
  0.6696801075059312  0.8383984352929679  0.1958239630909769
  0.8493074746884981  0.6781236203692017  0.2018411881132435
  0.8325925064014905  0.8436100411429571  0.0219387301611894
  0.6846708021838482  0.5131154132575870  0.7958902476826439
  0.8177937935374809  0.3405016575211738  0.8544227578321615
  0.8615510723607503  0.4801312210469457  0.6683877243339243
  0.6907110634043672  0.5418152774473686  0.5149784657121824
  0.8249985770893425  0.3312855385610838  0.5037646549270123
  0.0004587810273984  0.4749413153766813  0.5225232862220802
  0.6655607170451426  0.4905989666978514  0.1874600215245887
  0.8424371006226913  0.4307743646902892  0.2781004576721350
  0.8393966463366449  0.5093843183634759  0.0098610543505373
  0.6665243102869828  0.1842235825088009  0.8143277891915250
  0.8045238097525808  0.9963705466167996  0.8577602130854840
  0.8449611230196191  0.1573343675502044  0.6702072196271800
  0.6768720976682538  0.1547012977016193  0.4529919428141424
  0.8189252797743175  0.9927908633603344  0.5362289739886906
  0.8600216955150820  0.1049864187435635  0.3379485614601639
  0.7128462183733442  0.1677849676300031  0.1691795634062516
  0.0244518924290683  0.8337290001743756  0.1774120690892891
  0.8533526149074676  0.1719248639509233  0.9980935967283358
  0.3317585121389816  0.7666252527953427  0.8202347724425414
  0.5106116363419696  0.6664858058857923  0.7886838447143848
  0.4636788843905236  0.8413470686692839  0.6762402339593209
  0.3324580797799368  0.8532603053964747  0.5091085266112559
  0.4534845771983124  0.6796340095576110  0.4977033412933275
  0.5099230604898114  0.7977998281527523  0.3389147862536498
  0.3390215946811484  0.8584000091584210  0.2020683922337934
  0.4962498825073781  0.6645416560153496  0.1561730080624397
  0.4853729913036791  0.8544627220715155  0.9962178991462005
  0.3211102218024750  0.4906755246080367  0.8284308007712282
  0.4945101434716926  0.3440466005004082  0.8417940629406163
  0.4902542362086064  0.4855181287219493  0.6377183259216715
  0.3230423272634622  0.4760995624694842  0.5010805937046152
  0.5151909815450187  0.3558343729422133  0.4776500270739789
  0.4878843012818875  0.4795207010651405  0.3204244517702147
  0.3238694037030047  0.5059642323884780  0.1711804535787167
  0.5067235390281343  0.3439492330895169  0.1381598042564298
  0.5384878653520530  0.5188861226187653  0.9834452567981739
  0.3352383545790421  0.1804790262158866  0.8094609570925342
  0.4953517136879915  0.0080096471445588  0.8009765107034774
  0.5176783646459563  0.2232582989913796  0.6396582653094811
  0.3340444398400872  0.1616424402639906  0.4967086147712481
  0.5062303862497277  0.0080060116812636  0.4747212315485305
  0.4917463664771353  0.2023039414885389  0.3331145630286297
  0.3316375214913936  0.1400311968636177  0.1689314485714709
  0.5137451261000445  0.0098441587293927  0.1904784922330409
  0.4709097000609729  0.1361146585493036  0.9955112057568046
  0.0052193587783452  0.8391691155564722  0.8354265176661905
  0.1912351117326858  0.8535841886759469  0.9887076804509010
  0.1644551770168538  0.8171388987700444  0.6548433709259012
  0.0089052827089071  0.8423326454887181  0.4936958525055967
  0.1529467235395361  0.6566398756460634  0.4899519237365363
  0.1623671622422106  0.6814918040486641  0.1605160095636465
  0.1536031236121493  0.0133843121682365  0.1644259285134364
  0.1594792569807957  0.4800944198093158  0.3214466476429343
  0.1893823981605793  0.8204117393091124  0.3327876838288222
  0.9969694646117413  0.5457950742147045  0.8299959667192782
  0.1128585564477688  0.3287181360474117  0.8414947947903840
  0.1684802567152011  0.4826690084832511  0.6632721903617087
  0.8516097992235394  0.6664747533688802  0.4853111216812073
  0.1410957736155290  0.3337134485948282  0.5160176452143693
  0.1685854580529146  0.3435811397423966  0.1524319841215422
  0.0038056765825778  0.5172764227197879  0.1504458407596456
  0.1964857657605563  0.4868128926170498  0.9773854550415163
  0.1477102596478475  0.6613299484452824  0.7972815796447021
  0.0006555472419470  0.1506380503830567  0.8134733851002772
  0.1774988979669852  0.9969230807376422  0.8098397385878771
  0.1375556787641341  0.1615841615163905  0.6619268197041905
  0.9919956997911776  0.1344502932255628  0.4766454221118757
  0.1902489883602174  0.0015347427865867  0.4712214298013725
  0.1521982292806756  0.1680400054698825  0.3385846884637526
  0.9946766227617203  0.1816319089918733  0.1486335012625958
  0.1561837749762223  0.1603552876259577  0.0269561705154730
