Cl O  Li
 1.0000000000000000
    11.7780000000000005    0.0000000000000000    0.0000000000000000
     0.0000000000000000   11.7780000000000005    0.0000000000000000
     0.0000000000000000    0.0000000000000000   11.7780000000000005
 Cl  O   Li 
  27  27  80
Direct
  0.6736632365704264  0.6737101333592912  0.6483442884345256
  0.6534427580934600  0.6742381845610609  0.3199412582825780
  0.6643540214101932  0.6620135340606577  0.0292514881812714
  0.6539065184642544  0.3454774658123461  0.6538636238854234
  0.6760423211997902  0.3362922169773308  0.3227655204795766
  0.6904560178153272  0.3184179084914521  0.9878494139213501
  0.6722713481768940  0.0184282627079165  0.6576404672927602
  0.6474457757761606  0.0072425494298250  0.3390993186320552
  0.6655993121343543  0.9956072760384737  0.0084609903144625
  0.3335575343083550  0.6544112647540633  0.6705314266698579
  0.3056009822449626  0.6839595411944225  0.3289285537057207
  0.3536144922145978  0.6926169412547176  0.9921450361064125
  0.3298498197384808  0.3450317619343821  0.6694004262579404
  0.3102459542975148  0.3212689922725320  0.3295913605944559
  0.2979805754747179  0.3509451013947580  0.0120009902781779
  0.3435122488445765  0.9810646700821997  0.7011285991107881
  0.3397383608721650  0.0195353906448324  0.3320490476472067
  0.3310815478503140  0.0052150682503399  0.0040496371058888
  0.0038485103044342  0.6475414169985859  0.6478119052938931
  0.0140977160288082  0.6713689025882156  0.3231645244371816
  0.0129718319605712  0.6575360906344124  0.9902359649459241
  0.9803331384428000  0.3315200397667658  0.6684104365288234
  0.0223678731430842  0.3227886323771112  0.3377554459347047
  0.0006130476037957  0.3297705639899911  0.9989343738798522
  0.9748867387230674  0.9970361620871326  0.6499737452135509
  0.0106529921515273  0.0028952874718072  0.3569411578191669
  0.9834027118599414  0.0222444326303278  0.0019099354307427
  0.8435970201108460  0.8138083964758694  0.8312045775419652
  0.8512109492155012  0.8298848288773973  0.4948427635635442
  0.8374122259768626  0.8410894089891026  0.1749121353911981
  0.8254304879360636  0.5099832489866790  0.8334362143083494
  0.8234058125852620  0.5043383682795759  0.4749828886328603
  0.8184892644028722  0.4847249685245705  0.1576189038727502
  0.8388606320026628  0.1829701032004720  0.8356031553896588
  0.8336776088520870  0.1905811375983170  0.5056917198343888
  0.8148877633059600  0.1509964470644893  0.1912509537345085
  0.5250328352518887  0.8100678684812438  0.8192173334854151
  0.4966748703490002  0.8110155509569796  0.4819701035917366
  0.5022482943075698  0.8199524622874595  0.1686200346781843
  0.4994162589118639  0.4793990723623376  0.8559966280232734
  0.4873602301438359  0.4865166908266114  0.4865992053635948
  0.5005493240796878  0.4886487334845578  0.1653944203698046
  0.5088767275636106  0.1663752045179764  0.8652626047656968
  0.4898627143026787  0.1452852208918567  0.5150917437691039
  0.5014826747203072  0.1661366948467024  0.1723218788636182
  0.1710773778919568  0.8366714791154604  0.8274867213769023
  0.1648336268797567  0.8482903059416107  0.4924112098429057
  0.1788745034765634  0.8383668461418584  0.1565670929226638
  0.1725172819816708  0.5001303552564417  0.8283144860684136
  0.1722297141149093  0.5097028065520660  0.4943243074039289
  0.1661622669416195  0.5152996310775775  0.1640026129470921
  0.1674060900696706  0.1692443447918869  0.8365936714291050
  0.1771472339471376  0.1697577706393179  0.5285076369714066
  0.1857388249735849  0.1625842620666302  0.1595960594736414
  0.6757638220648540  0.8402876359307688  0.8327377600161673
  0.8581961399038808  0.6652973056604076  0.8453780337349535
  0.8670149957789929  0.8063998903412196  0.6595637671770866
  0.6675707491710924  0.8570579882585662  0.4901684800741996
  0.8306160211820551  0.6614025687393429  0.4932507153032979
  0.8586173501088347  0.8179876243725406  0.3404750128616140
  0.6584509247585306  0.8346433220194047  0.1748190796764647
  0.8294371670155958  0.6568448427451986  0.1659953756735130
  0.8308895406115694  0.8058094511227417  0.0071208992074337
  0.6724702125104900  0.5071561123255752  0.8465622319755239
  0.8449527145478974  0.3531313945020160  0.8083269201547979
  0.8431849596085373  0.5214199724389461  0.6360660757367795
  0.6675887651785130  0.5070625100578076  0.5157979307745835
  0.8458628265632147  0.3409617231883031  0.4874566053751778
  0.8506292548455689  0.4471151562873254  0.3299998583806903
  0.6479029775105457  0.4535257375525111  0.1793308142449240
  0.8476503383826223  0.3220406846712848  0.1435616509276250
  0.8053739348839202  0.4869507349065142  0.0004234093076400
  0.6933254617298124  0.1565906602810601  0.8828402361675791
  0.8585208328915518  0.0105277766065791  0.8160132371724151
  0.8400144661857828  0.1760491831003628  0.6693956489795682
  0.6693734835046353  0.1646431071034158  0.4985576642936818
  0.8456645290253576  0.0066164090382150  0.4749022416962718
  0.8152916457554619  0.1793409910539847  0.3316894359934676
  0.6616484624351212  0.1867612582002204  0.1938645298582103
  0.7967860077870719  0.9903565543240584  0.1656224240772006
  0.9937214545121795  0.1641046713939981  0.8841936333005290
  0.3416161956411357  0.8051453284581835  0.8220189238528507
  0.4896954690742413  0.6436892302433620  0.8695564873433012
  0.5114881579605861  0.8052586876059991  0.6604212481594895
  0.3307943038668320  0.8470618166625722  0.5048869103703100
  0.4812052332715637  0.6517538834168128  0.5024389195732384
  0.4842854037447555  0.8191092321693534  0.3332702090670471
  0.3265743071623572  0.8379325186640860  0.1872793552626841
  0.5274956841944062  0.6676426254578864  0.1571746574695439
  0.4925792448238429  0.8738176524381409  0.9973938847380337
  0.3247843864610584  0.5295551511965021  0.8305671752479635
  0.5090664826799716  0.3216135838391856  0.9036158101001510
  0.4872582878816219  0.4866449486052824  0.6988841689548647
  0.3193258196104717  0.5021677025405523  0.5108237718538574
  0.4748206841249656  0.3378202982898813  0.4892051297448192
  0.4909648081319031  0.5033280143892619  0.3219489297612070
  0.3387944637822579  0.5296325997857060  0.1668106101306498
  0.4870088572710183  0.3421230471722612  0.2099880265487865
  0.4785998756860785  0.4812783241206559  0.0118286464184268
  0.3459813325402238  0.1840142219226710  0.8541255543177616
  0.5232074695741927  0.0246489572791590  0.8237521042521270
  0.5066855357217507  0.1965613994413138  0.6885758548482793
  0.3524855970439970  0.1119558298334128  0.5072578574322772
  0.5255286600673510  0.9852189260719558  0.5146230036928876
  0.5065999900505599  0.1420003157006285  0.3368283907753301
  0.3396324915251875  0.1617329955946521  0.1757861951489690
  0.5003529293560978  0.0128982492301486  0.1535745632406268
  0.5112082418363021  0.1501902307324153  0.0106487054717445
  0.0073003959874739  0.8483696573450814  0.8696611016425707
  0.1754320493125770  0.6797390181796187  0.8624666013848323
  0.1615831444083250  0.8513339990604518  0.6778975850657167
  0.0122116083193514  0.8617915423880541  0.5003091440982481
  0.1534358301491413  0.6732771823854566  0.4956582206904355
  0.1512195474744746  0.8334872206533283  0.3366013688391249
  0.0118095869335373  0.8716105498301769  0.1565880036368947
  0.1594737634585892  0.6658573808214351  0.1519429404921701
  0.1705510473201092  0.8356143240912627  0.0048330895673506
  0.0091641481596328  0.5001573185394578  0.8304253143715546
  0.1678814393890586  0.3192121310208332  0.8179903826519541
  0.1759884200585955  0.5320533439018920  0.6457630196679510
  0.0291334785589959  0.4818408284062794  0.4645985834118287
  0.1787693426242598  0.3237516385805073  0.5065963663193649
  0.1956035404435231  0.4901977862394540  0.3335584651857775
  0.9858094075388804  0.5229240054179958  0.1871467857878551
  0.1763362302153389  0.3320027270667044  0.1521331611907451
  0.1426629965703251  0.5019485145311695  0.0003528339075032
  0.1818849175884388  0.9964748211244602  0.8461121151878773
  0.1852013811567106  0.1693952642787685  0.0062011425654563
  0.1811007151980165  0.1784883683207738  0.6823872550857619
  0.0173857044370366  0.1706143204572924  0.5396927031155234
  0.1422485170647730  0.0272700839318136  0.5171326537692889
  0.1745253178289893  0.1745451703640181  0.3575033382215109
  0.8508508114943455  0.1710984449892837  0.0298569753205543
  0.1517544913172856  0.0022063513627591  0.1584776601455661
