Cl O  Li
 1.0000000000000000
    11.7780000000000005    0.0000000000000000    0.0000000000000000
     0.0000000000000000   11.7780000000000005    0.0000000000000000
     0.0000000000000000    0.0000000000000000   11.7780000000000005
 Cl  O   Li 
  27  27  80
Direct
  0.6755015162094445  0.6615526162553079  0.6688220558268512
  0.6598213954857609  0.6604162717692792  0.3360762367220990
  0.6545697090799372  0.6758444113015334  0.0067326387726268
  0.6799719151743613  0.3265569621924061  0.6583397759137792
  0.6599712724733368  0.3619172228693713  0.3182585673247180
  0.6527884320136592  0.3251006412689638  0.9926726100465832
  0.6613843347362647  0.0194382608162903  0.6870544982490063
  0.6446720384863127  0.0105457999355800  0.3552057953429826
  0.6726232059901839  0.9968745222370756  0.0087308910676008
  0.3338150813592036  0.6547298530315836  0.6516735292848600
  0.3596921610694491  0.6549909434402482  0.3170125681058830
  0.3409929218707543  0.6763501145570193  0.0144988505838262
  0.3327305177124806  0.3573484848437248  0.6912496773971915
  0.3310616686295895  0.3317582037774521  0.3390438577556741
  0.3471345180723382  0.3261027563783561  0.9971504377679306
  0.3256115227442691  0.9965584396737377  0.6658664994454365
  0.3350678416414976  0.0037804137102080  0.3145235858312531
  0.3362422424128642  0.0075541780123438  0.9974471641935205
  0.9977290397601015  0.6763210460326868  0.6797634807739851
  0.0394831172633247  0.6516580225528384  0.3441206876759927
  0.9707021861105432  0.6823303764000161  0.9868792484659624
  0.9616015163575564  0.3284159510030524  0.6715010968584164
  0.0316767610052530  0.3400270451159053  0.3194165310196515
  0.9823172579149221  0.3322901213358705  0.9762381000088021
  0.9955559695672787  0.9937888476458865  0.6537353702419809
  0.0154562005443599  0.9877374636915724  0.3423632970015760
  0.0177916469624912  0.9890015776010149  0.0236544577729243
  0.8254508107274035  0.8421428884277458  0.8389396431283713
  0.8050040592943160  0.8301858464870063  0.5111836912833997
  0.8516642229806759  0.8385728040089421  0.1615307196506829
  0.8169676598714646  0.4939587274674360  0.8253501484882718
  0.8466152875078019  0.4845825899245819  0.4994425580338386
  0.8496974417660802  0.4984331749733460  0.1694366497744874
  0.8352417212950318  0.1471276698779418  0.8173710409860114
  0.8400715497293429  0.1719909949234388  0.4871450337955540
  0.8400912256385711  0.1845333344355946  0.1710165321690484
  0.5054767214674931  0.8558623412337337  0.8273068083503839
  0.5132333616421658  0.8362970381457300  0.4997300449297802
  0.4989264655380350  0.8435502422478729  0.1562214731132854
  0.5131928357468218  0.5152702067713048  0.8398177716698406
  0.4973579393009604  0.4924173669404271  0.5034108569447533
  0.4953324137565506  0.4866216375959097  0.1686509494238975
  0.4980014953772720  0.1683215390659522  0.8501515915846847
  0.4843501795162030  0.1728814715149380  0.5251276356874718
  0.5149675946621004  0.1727210278353694  0.1510200594652471
  0.1634718182613586  0.8440359861962615  0.8385360035913291
  0.1766904564251099  0.8131348492975464  0.4980747584592169
  0.1705634552138072  0.8346398083754900  0.1660027886387594
  0.1658044762468807  0.5051820928093506  0.8319912131922120
  0.1545888233755585  0.4770106846754381  0.5117309730548879
  0.1521941417420174  0.4828811905721038  0.1497384330856702
  0.1567753796379811  0.1572413098908594  0.8362483350175962
  0.1636755813295566  0.1569287017980537  0.5013165871742754
  0.1486268913019093  0.1644839270583045  0.1454761898559293
  0.6790019252377516  0.8136953293126731  0.8847348765169007
  0.8617036329944796  0.6518487898044475  0.8392169681864194
  0.8091177008268939  0.8312050261966860  0.6967843568184544
  0.6599138236766404  0.8242905230340511  0.5317640445692695
  0.7893515901056172  0.6498326568751422  0.5068479872773334
  0.8012127625956327  0.8199702439691698  0.3398962375764253
  0.6889375711458944  0.8503789973122673  0.1339140729677441
  0.8471028128142276  0.6847487318770161  0.1840010735712086
  0.8672307821294944  0.8626000850965962  0.9999048969505038
  0.6669935477972159  0.5211003487142661  0.8404179273867028
  0.8355405036203450  0.3380846968462048  0.8267480287224743
  0.8128528037765884  0.4849556629771239  0.6668377039443443
  0.6772963558880504  0.4823127754166298  0.4904372263605703
  0.8264672374292075  0.3222545979214206  0.5196011343190158
  0.8756714233050029  0.4667272286105523  0.3341566007673715
  0.6789654883688109  0.4914251100283538  0.1648641972124794
  0.8385028210652188  0.3396176971360622  0.1371495151093854
  0.8657684491226769  0.5246356561659363  0.9856742571718834
  0.6774972849775529  0.1627419208396627  0.8318074904019314
  0.8036974331741046  0.0004078174373550  0.8090423014835608
  0.8347688517070024  0.1416356823214544  0.6525656252927566
  0.6378854287336596  0.2116025880121676  0.5057558123735428
  0.7998860557120941  0.9957266874856401  0.5140341880260355
  0.8196370248900554  0.1942276873005302  0.3451664662999990
  0.6711869455873640  0.1729788996539443  0.1489277127517410
  0.8385644398591385  0.0015733294471952  0.1814854923822521
  0.8205741001883887  0.1678700963811302  0.9834938268580514
  0.3429431445526870  0.8465258389072048  0.8320770422612720
  0.4874386494984313  0.6971400203247079  0.8316473301202323
  0.4917092529653235  0.8852796068875464  0.6763872404979459
  0.3641866488532765  0.8583642585968375  0.4863821672161669
  0.4874065445683535  0.6601127526510038  0.5024145919770964
  0.4874959363534879  0.8336450008825907  0.3320082222465167
  0.3359587838152110  0.8547775751599609  0.1594454376412103
  0.5050056332375007  0.6690110409004063  0.1719238911764901
  0.4854951473945477  0.8354621480220702  0.9851852693300238
  0.3236262396973335  0.5509247356503755  0.8292492983190191
  0.4948690177544455  0.3462511910683447  0.8520412885787659
  0.5124414670238560  0.4990538972784548  0.6879102788441921
  0.3191839173642060  0.4975837505875200  0.5170517680554693
  0.4603701853873519  0.3484914107416349  0.5203492237237769
  0.5086999268939818  0.5148362841476318  0.3344529337253837
  0.3349833485909652  0.5042827499130758  0.1836160978081458
  0.5033773910207734  0.3211486377355475  0.1570996016547547
  0.5067805540944190  0.5072138531068905  0.0029776638124998
  0.3198648819592966  0.1910456150505346  0.8342204208339999
  0.5081021598163057  0.0100404319498949  0.8673086605481718
  0.5190859325022307  0.1672813170644594  0.6869162810594915
  0.3296413999636935  0.1423211306756952  0.5132078403238718
  0.5166788319691925  0.0192399822559692  0.4869366149052136
  0.5009726386415114  0.1798457110036767  0.3376667465367677
  0.3475437041105415  0.1540631546042748  0.1294531475887520
  0.5576433867298020  0.0131967845780609  0.1710694465998322
  0.5088177799222999  0.1668605319563100  0.0130103677976985
  0.9839076753722494  0.8354357515347932  0.8289871957751060
  0.1682965455340180  0.6781645896594432  0.8202623470218610
  0.1422566739904278  0.8426678222529506  0.6591772166182648
  0.9919528759388115  0.8384792017411747  0.4859302690704831
  0.1590659327971718  0.6416560615432237  0.5221001772180143
  0.1717476534543779  0.8177907524107807  0.3374022351109636
  0.0193661321458404  0.8310800072508095  0.1708446311184684
  0.1897290863349421  0.6603750171365564  0.1945367334972787
  0.1848270521720136  0.8237478565992953  0.9844850640438622
  0.9853595960376995  0.4716202952551803  0.7970522234483155
  0.1660034114299440  0.1549562526260672  0.9867645062454515
  0.1626665128510081  0.4598438992135667  0.6893313977036968
  0.0024159714608354  0.4928565121819818  0.5039178152479474
  0.1925179035555435  0.3165941708169027  0.5102211101768079
  0.1778137038810249  0.4594058470780804  0.3250805208402435
  0.9999182554474257  0.4672901377502751  0.1462510198739520
  0.1794396586720909  0.3342193523327524  0.1523430315697192
  0.1659083112020090  0.4363414304948875  0.9638683093137852
  0.9951698247880041  0.1988387325795578  0.8476195530765898
  0.1266876148675458  0.0051798542141543  0.8457044312450701
  0.1667878364901210  0.1541202795176917  0.6797368818596584
  0.0078905547191428  0.1324714858996050  0.5081714553280773
  0.1645256332392367  0.9861034004319982  0.4908124046544290
  0.1535764755788053  0.1440535823375927  0.3369786565095288
  0.9916711196261291  0.1848884319661260  0.1394626490059668
  0.1995986398113673  0.9821030155685417  0.1667630641519107
