Cl O  Li
 1.0000000000000000
    11.7780000000000005    0.0000000000000000    0.0000000000000000
     0.0000000000000000   11.7780000000000005    0.0000000000000000
     0.0000000000000000    0.0000000000000000   11.7780000000000005
 Cl  O   Li 
  27  27  80
Direct
  0.6822050670919833  0.6495697329260740  0.6518362101596566
  0.6747828768887757  0.6814074997836131  0.3436931722447711
  0.6525654555668128  0.6689879930051973  0.0124370795873329
  0.6379136237700440  0.3501893166519021  0.6530732013747813
  0.6757808827290598  0.3330680975189114  0.3457647297002761
  0.6802685689640182  0.3117605655425111  0.0119991527035836
  0.6513475329797672  0.9943450314690334  0.6562026021064530
  0.6922496592382583  0.0182492811914052  0.3806631935488286
  0.6467495240027383  0.9764716807161334  0.9977027570282162
  0.3345791594492541  0.6873043616821458  0.6538053800134386
  0.3207503150656243  0.6536619981622069  0.3122966558701030
  0.3467962391779997  0.6626176542374861  0.9979520902208020
  0.3408546813868998  0.3520670704500529  0.6613663946873098
  0.3080191718442412  0.3524912360899317  0.3376369395300330
  0.3441674810255725  0.3131971700713156  0.0131554957169506
  0.3374582388913034  0.9915287841180327  0.6743566647749759
  0.3135549038861623  0.9943497249299555  0.3241810872281256
  0.3270401688383868  0.9922595856201676  0.0048221823120542
  0.0135502443413864  0.6381056008512817  0.6638095272351895
  0.0154433408447331  0.6555021005291188  0.3368133448357448
  0.0142942864703233  0.6643971094603169  0.0138756767574076
  0.0044602045388455  0.3598556940985734  0.6486424376261901
  0.9961753009302933  0.3304997233554009  0.3447980595672809
  0.9917111686640252  0.3557814853552712  0.9979662624864709
  0.9873676098558474  0.9920736873716876  0.6598006214581109
  0.9947835608778335  0.9692252427381259  0.3097829977381183
  0.9975354737495262  0.0066340449150484  0.0002025284273741
  0.8324383262752196  0.8106106937474322  0.8410666760931677
  0.8359973986625211  0.8331851154141933  0.4960735346584491
  0.8222968930283823  0.8177167738698748  0.1641290938792838
  0.8307278986763261  0.5057799696462999  0.8686928672114984
  0.8269797594246329  0.5118572750169086  0.4971010138771652
  0.8288788490338188  0.5036431092245715  0.1813450387501676
  0.8367687266925844  0.1616880030726556  0.8133309314555555
  0.8355279298489258  0.1869090470789773  0.5184585655775390
  0.8414622002662375  0.1470350174417036  0.1718211497037592
  0.4970214822500689  0.8332138600552464  0.8447610507204687
  0.4902055205752137  0.8282850043082368  0.4858083375134434
  0.4780354039219916  0.8237424603428176  0.1672535958763533
  0.5100940186907208  0.5240644763056304  0.8277091628519903
  0.5176734947115221  0.5187395517932359  0.4668449715003391
  0.5118272800608170  0.4955498328662972  0.1587764874678469
  0.4968868277766284  0.1828971453815637  0.8261195437163399
  0.4835756703298252  0.1903190521869017  0.4871860155280889
  0.5039539609347143  0.1382340156323724  0.1716746532479129
  0.1730214630982028  0.8079915306371594  0.8456075196713696
  0.1551197864752087  0.8380371298531483  0.5097149315940842
  0.1818983952938653  0.8313018151148815  0.1651468970850256
  0.1512096752197217  0.5014362090436568  0.8389369006181777
  0.1847195198715941  0.5159184474582120  0.5001329257417154
  0.1800181111575938  0.4985304902018710  0.1540870624351870
  0.1685854564890251  0.1876258412618596  0.8336301540548434
  0.1732225136439353  0.1600950337693334  0.4931249822529530
  0.1694486965209912  0.1899916264340602  0.1628294919776961
  0.6505828040715231  0.7930407545734375  0.8430952380433229
  0.8354165140007873  0.6539380276871372  0.8450218577312638
  0.8461108160056841  0.8233068373319272  0.6578636779906367
  0.6567034288307613  0.8402694143860915  0.4803512281376143
  0.8115748180322709  0.6698249478847638  0.5085351462631964
  0.8274146536981442  0.8289054027300659  0.3308001481117667
  0.6455482409191755  0.8038421809730195  0.1640491351946641
  0.8233138865259252  0.6656072588486553  0.2010180127858909
  0.8549308864430940  0.8161856966369891  0.0217426131056003
  0.6563628655623960  0.5146892294417947  0.8602062346103052
  0.8112885052132173  0.3362490969055439  0.8826233299740626
  0.8273741682882101  0.4939220764744892  0.7196292315212566
  0.6713821429397262  0.5203676320683234  0.5093246522423200
  0.8649881910080885  0.3551362288917425  0.4979969964844154
  0.7962570012420870  0.5128505440642305  0.3454293890497923
  0.6601673605047176  0.5139359579045619  0.1041969525015842
  0.8200183741572945  0.3199620998869491  0.2102209132596374
  0.8604370641357634  0.5126949586338539  0.0279805342187698
  0.6805075138534491  0.1600038100193995  0.7781369645998943
  0.8240610042808482  0.9683253482281406  0.8427971844553883
  0.8421357155459004  0.2453456068069511  0.6693814127481816
  0.6815938183727991  0.1569759973026051  0.5012531165491804
  0.8569330519059720  0.0295599178951089  0.5252306005826158
  0.8717361371942545  0.1719825825039209  0.3548618822832746
  0.6724752085225354  0.1263243213785510  0.1663795462399348
  0.8094468239153177  0.9868225766177862  0.1481677108914360
  0.8408720849310389  0.1445590917117775  0.9895263152561923
  0.3269585097665498  0.8605722806722734  0.8417556567994253
  0.4848052932003419  0.6892150301185729  0.8306157723727947
  0.4909949050981077  0.8188102038213734  0.6726446987305050
  0.3155465228997525  0.8111205670001413  0.4623860703918437
  0.5183230831139138  0.6657581074860696  0.4844089188336634
  0.4780591283722129  0.8265038891835986  0.3353513964403217
  0.3278616582913583  0.8598363368904924  0.1492565255062020
  0.4878022661561191  0.6570430157166185  0.1740114711093057
  0.4871543781409448  0.8499963580060241  0.0030577117515752
  0.3448680000736612  0.4930410329835045  0.8101258634927172
  0.4928212829110521  0.3331983390826692  0.7945390616389316
  0.5207076332736189  0.5215348669221316  0.6489935675865480
  0.3396474671907816  0.5343409688800076  0.4800549963931270
  0.5041502342020747  0.3371602615415193  0.4796943523614345
  0.5516331828745242  0.4911065591260362  0.3199155039520652
  0.3509243744873340  0.4911239678523079  0.1894717965424574
  0.5296786738046732  0.3261710030825484  0.1461352724632798
  0.4703134597436323  0.5029351003756448  0.9876674263939019
  0.3373485841584970  0.1690719446848280  0.8608605598056590
  0.5024947857898718  0.9941253022835851  0.8344971895939910
  0.4758888674872888  0.1441123858199178  0.6488008975206719
  0.3219795735674516  0.1394954296710398  0.4517380027250917
  0.4726814513706744  0.9923179472363410  0.4634412011455446
  0.4832545400582284  0.1463632835200780  0.3187202936799925
  0.3475459075137484  0.1799793011595025  0.1770474720002593
  0.4734403098944781  0.9861230798262982  0.1481740569794431
  0.5240801488919443  0.1534723291987983  0.9828760654248733
  0.0043186612198708  0.8159412457318074  0.8343019689472889
  0.1449828471088741  0.6631501588343486  0.8121887570704963
  0.1650278820618912  0.8449203782793139  0.6868358875330444
  0.0052677878860893  0.8592281650624632  0.4674359370291462
  0.1620009094173528  0.6720379208771684  0.5611361794886875
  0.1588351629089131  0.8137594060196421  0.3148944831693405
  0.0116205376409378  0.8073782576474786  0.1826328998828745
  0.1649922346584443  0.6691498536741137  0.1753745946190799
  0.1873051408197366  0.7985991584449216  0.0057866988110162
  0.9825017481415258  0.4742775434392445  0.8350957258944557
  0.1571359092831615  0.3443138715352245  0.8284257546078228
  0.1947849215185753  0.4983105734551092  0.6763467655856935
  0.9871566112857927  0.5085479571234902  0.4888196423043373
  0.1748397235864555  0.3388907294183300  0.4954591280772902
  0.1965678180012506  0.4975021203041364  0.3338153395020142
  0.9941435226040944  0.4991703621058785  0.2118288115578727
  0.1849292747804624  0.3365585673790797  0.1526144866196562
  0.1352264098678045  0.4862062455930299  0.0006927175472566
  0.9857891862012130  0.1569113016175304  0.8218918142985678
  0.1508915813538699  0.1510206238653652  0.9900397864067971
  0.2361447150936659  0.1763588124053311  0.6607308142367555
  0.0079745044908516  0.1870017181823164  0.5675568011355369
  0.1862822971804580  0.9980547277680948  0.5133423433533544
  0.1611755839717900  0.1811841672018445  0.3271691331510124
  0.9981184785183130  0.1815942034336564  0.1531480235944719
  0.1650810697691921  0.0313750306427391  0.1609286918599405
