Cl O  Li
 1.0000000000000000
    11.7780000000000005    0.0000000000000000    0.0000000000000000
     0.0000000000000000   11.7780000000000005    0.0000000000000000
     0.0000000000000000    0.0000000000000000   11.7780000000000005
 Cl  O   Li 
  27  27  80
Direct
  0.6557231648076475  0.6868229638266991  0.6820886636904212
  0.6614145632507650  0.6697562987835944  0.3567609457624730
  0.6763253802148820  0.6839418601141531  0.9939528657977905
  0.6537754522211308  0.3418394174341348  0.6665246551224282
  0.6590816724741357  0.3270172635177734  0.3519638295393887
  0.6567753401264232  0.3349269992701118  0.9961786109881525
  0.6809631458644660  0.9802072241818804  0.6555910843448216
  0.6703172239244405  0.0058017024465110  0.3345199619319286
  0.6542796980018594  0.0023829735234765  0.9742984359775706
  0.3222437905603004  0.6479226791478063  0.6575771366145459
  0.3527139602702677  0.6402518275567840  0.3684371404144999
  0.3517238490849208  0.6580907922797902  0.0021176571023750
  0.3124169087059457  0.3234577862763726  0.6619536903992354
  0.3603760670127444  0.3337478414630778  0.3294386786165171
  0.3333372382217367  0.3378460378117659  0.9776797723545854
  0.3400218652267659  0.0185438279679232  0.6564772694828677
  0.3737791263400979  0.9980116270164936  0.3420370094506116
  0.3158322983733912  0.0136539381628059  0.9982726013144142
  0.0030918954525285  0.6778009926499480  0.6817434850853236
  0.9922038296431032  0.6520472517410666  0.3323915629608762
  0.0035434656031333  0.6669897687811619  0.0090385575923638
  0.0118267871177755  0.3097518555973027  0.6625163161410889
  0.0085721555244100  0.3334859413462146  0.3430057038541034
  0.9911476924474146  0.3310666142193762  0.9995188046603698
  0.0093551914289587  0.9939253087075295  0.6735795616867142
  0.0114095267706284  0.0130738834519759  0.3407695327218066
  0.0144843911247806  0.0139430254976090  0.9998815553962306
  0.8367487361076963  0.8429298462831658  0.8534645375326914
  0.8269324007026293  0.8146447956035685  0.5027229132268481
  0.8123703655450941  0.8302673055889159  0.1814914888333214
  0.8237347010843989  0.4893693848252554  0.8353370332930850
  0.8275634063018611  0.5010535955884491  0.5100330398153583
  0.8429356354829964  0.4916574177676777  0.1698931476245977
  0.8316955091813691  0.1638309909453631  0.8252793238739914
  0.8321313751047190  0.1822693725265004  0.4969215159249399
  0.8173256177793807  0.1576774313051436  0.1427808276932073
  0.4865275922319652  0.8531555701534858  0.8288689222603831
  0.4933373596391006  0.8606997024114147  0.5116999455985726
  0.4954709407426244  0.8236609773666991  0.1730592483803744
  0.4807716600454129  0.5128310847361309  0.8241599022893150
  0.5162342475959865  0.5033085924363652  0.5159048007597319
  0.5164142052431432  0.4964189878008399  0.1481708223807182
  0.5050702338650350  0.1642269888612804  0.8237481656702859
  0.5121014564645096  0.1655710133789182  0.4946845755698545
  0.4950507831583290  0.1532009595287368  0.1480604996386480
  0.1576873803808448  0.8223679543442257  0.8112057047019003
  0.1705997767825026  0.8439784993712774  0.5021259153719607
  0.1522084493690612  0.8353487913313772  0.1947980511860970
  0.1674437670151520  0.4936179642291435  0.8398607920282949
  0.1633134758577386  0.5048411271440084  0.4932922823222227
  0.1806276079690651  0.4913436558406888  0.1487493386459707
  0.1567410642876941  0.1591472642341515  0.8095739807399189
  0.1698017688672928  0.1717881857194965  0.4948507681776337
  0.1524248033997488  0.1744848379043831  0.1709473674565751
  0.6555595632661041  0.8228287592800951  0.8100817487513117
  0.8146566576148893  0.6633907372942554  0.8489652319850816
  0.8584804134812704  0.8456355671998775  0.6860285418435621
  0.6526553423844856  0.8314896410856446  0.5217230804775825
  0.8068592486324130  0.6705069387691815  0.5183074074122674
  0.8342286812809419  0.8215205137434866  0.3456141383307437
  0.6425392530042672  0.8168208054167034  0.1673542265968141
  0.8559768767017691  0.6609900334559867  0.1884571453114078
  0.8055530273663010  0.8575684798362961  0.9998165030125540
  0.6470856025982200  0.4890573232854837  0.8293340186497052
  0.8105003444602407  0.3186224315836055  0.8281530592419293
  0.8416120054906128  0.5091390987480160  0.6907177239637625
  0.6736167038632449  0.5119368025160980  0.5118369482257893
  0.8457866180505516  0.3404361121550012  0.4948624279756947
  0.8278147397267316  0.5199025903184898  0.3561214787125648
  0.6944539370751464  0.4594673468728925  0.1629001837375108
  0.8301994923134863  0.3290509266295801  0.1468935279400042
  0.8319100008831997  0.4846606077666470  0.9774919731895920
  0.6663997342029930  0.1543913014302650  0.8367856012605249
  0.8412188111893334  0.0068385616286411  0.8443297335184540
  0.8476622261219756  0.1888451545069219  0.6599803505482303
  0.6830815854246745  0.1945738602552936  0.4839331081661310
  0.8224226499192565  0.0119694920757378  0.5055856770486941
  0.8379720432542631  0.2003850752691108  0.3229297987760115
  0.6590113898024903  0.1831317724862103  0.1535546734072717
  0.8013777670398036  0.9923256903082102  0.1786871454580103
  0.8300093728284362  0.1821224307311448  0.9942840408791427
  0.3203498223554711  0.8698391217623845  0.8268829509614786
  0.4909789225688029  0.6735977569051860  0.7961753343222482
  0.4920189117791886  0.8581230489815727  0.6639731431321553
  0.3269770005638040  0.8228266540387784  0.5234228604136634
  0.5104809064756698  0.6754162400631931  0.5216992345711315
  0.5198670439147777  0.8639914901223318  0.3544533988524626
  0.3012763157846411  0.8391479421995873  0.1713011289685787
  0.5141631354799906  0.6526706055978209  0.1139251958887045
  0.4551195780008759  0.8395570067815611  0.9891405327538316
  0.3353299705841001  0.4975786518829907  0.8423422237739719
  0.4707324524586591  0.3386433574750069  0.8146817819988370
  0.4861009569820802  0.4855978045212102  0.6554010863160011
  0.3256232089410196  0.4936786923440445  0.5247851944579437
  0.4981823296167270  0.3200741169276105  0.4924228581438893
  0.4971665911668918  0.5043273268065355  0.3472750522732876
  0.3440146982961007  0.5032392814145581  0.1443082511178462
  0.4912204585244695  0.3390611669055262  0.1646694872438007
  0.4847655457354059  0.5252743969355880  0.9894186637245713
  0.3310306629615647  0.1552228919930151  0.8082009585474159
  0.5191674965165274  0.0125369697409379  0.8322969838611380
  0.5043791884028709  0.1676931269900783  0.6657535700048245
  0.3428698923593959  0.1308544808412567  0.4920722140084506
  0.5137239497530262  0.0211501103919917  0.4922461798149371
  0.5030583923891828  0.1318534077246168  0.3087665246636218
  0.3154003392920999  0.1148703956597884  0.1730138642358383
  0.4843072913803626  0.9973707847278168  0.1531379773255256
  0.4793745895194091  0.1782746771283086  0.0045197548406560
  0.9824049934238956  0.8474404877455569  0.8377124742355548
  0.1532077811065206  0.6526146142758821  0.8338326764307559
  0.1675157601953672  0.8467121552208435  0.6570885991728717
  0.0005469129997764  0.8305528896705908  0.5128284764004840
  0.2145330051973456  0.6439787524536719  0.4899306572791696
  0.1345454544803332  0.8422131735565136  0.3378710607683988
  0.1003999686497914  0.0114387053355470  0.1834727233392635
  0.1438391030004468  0.6544660120721658  0.1574687218688749
  0.9952886154530273  0.8034380292797269  0.1629786545833154
  0.9800776428225820  0.5111564867250292  0.8560526078481346
  0.1462637337159865  0.3252414317391317  0.7841127064324009
  0.1727586612672353  0.5268967687678747  0.6591328694620812
  0.9916778122005981  0.5054230239409904  0.5198272701866012
  0.1717843393917627  0.3367689234804708  0.4998844811363726
  0.1580751800012505  0.5081451819341354  0.3356243836722242
  0.9994541212469960  0.4785400234928188  0.1669595646994247
  0.2029249879756476  0.3268880138465591  0.1566509874376746
  0.1727527301546800  0.4896440783316579  0.9932557892747153
  0.9981555685659246  0.1730963705279902  0.8005339935557469
  0.1455191969059470  0.9571659741093533  0.8774540862182868
  0.1556064404315876  0.1576948299100628  0.6541724755807328
  0.0251133863679464  0.1785370023419762  0.4829095965175885
  0.1574799331403428  0.9985102962482960  0.5128275452360554
  0.1624036067548810  0.1443573468254501  0.3254032953813417
  0.9998383387784262  0.1879079375096538  0.1418440661568009
  0.1626002646336357  0.1599525898872069  0.9519570989371522
