Cl O  Li
 1.0000000000000000
    11.7780000000000005    0.0000000000000000    0.0000000000000000
     0.0000000000000000   11.7780000000000005    0.0000000000000000
     0.0000000000000000    0.0000000000000000   11.7780000000000005
 Cl  O   Li 
  27  27  80
Direct
  0.6645346648434106  0.6461879275637746  0.6806348719651296
  0.6587772346966909  0.6874160828284646  0.3287624091890089
  0.6668348434088133  0.6644542967594546  0.9983823290777868
  0.6830654847367799  0.3330952851292879  0.6718561776166720
  0.6577841275910089  0.3643434022338427  0.3266263787181840
  0.6709132221493386  0.3509623264840834  0.9957840017204781
  0.6784186098699606  0.0003516644139243  0.6592935549141393
  0.6719939396821178  0.9869570644813475  0.3355297276438285
  0.6630610364072216  0.9948252444907265  0.0125142541986124
  0.3289624378149333  0.6522533302238627  0.6698027171394075
  0.3338274480704772  0.6598259237249753  0.3467900359223078
  0.3397139052186568  0.6695861868372835  0.9776988803281043
  0.3197158535838681  0.3404096424431362  0.6565151222011861
  0.3112426621387728  0.3419147280428440  0.3352210466357863
  0.3341468172267418  0.3159428315025331  0.9982867778170816
  0.3491538477675669  0.0072134857787362  0.6644150402416152
  0.3412203268368924  0.9883351283725563  0.3433905570209664
  0.3282147937496814  0.9782688246600352  0.9986107117033164
  0.9820517618712967  0.6651190267051615  0.6660027970484086
  0.9905223938793828  0.6831890821480713  0.3393854973578316
  0.9953626523674282  0.6649523482724632  0.9832802900337834
  0.0166088261747351  0.3293089478933217  0.6695714239924545
  0.0135241845940838  0.3358395076708470  0.3551905155711617
  0.9909508889277864  0.3435633749061780  0.9851558791276716
  0.9979763157877952  0.9840004137286954  0.6926122375816558
  0.0136192784961735  0.0001669247440113  0.3487869787673045
  0.9924059035641739  0.9907407518207165  0.9977672616039398
  0.8249039322285531  0.8398389549225734  0.8396911975061109
  0.8280779883673820  0.8214189031107840  0.5128696489224169
  0.8355768579370045  0.8278800506529772  0.1608839990614731
  0.8467151229472379  0.4896419808365731  0.8356175555585478
  0.8444260778695671  0.5096345264556107  0.4979572125419025
  0.8326481433823760  0.4952073077131559  0.1827885997422281
  0.8572065930483648  0.1600743271397579  0.8314771936554134
  0.8501253709676219  0.1794567171456797  0.4996023371745723
  0.8560921916545204  0.1608041576246389  0.1603566361116723
  0.5044142612731329  0.8617059345361472  0.8214377836416098
  0.4829182494707847  0.8369086209515476  0.5270978413896360
  0.4956083607291997  0.8202273365256052  0.1318075092244277
  0.4668771608321293  0.4945052907048997  0.8270728668795090
  0.5176046507421028  0.5125951435132672  0.5230912432809235
  0.4915252047103020  0.5006848622210017  0.1457802185122581
  0.4938677310144955  0.1700102969311800  0.8269366739604909
  0.5239746656265345  0.1803260805958983  0.4698371803931964
  0.4851110202436321  0.1500886311435844  0.1574473545538122
  0.1576672109092517  0.8375180073418748  0.8155277234994388
  0.1583159187539774  0.8484134408633238  0.5161532990659370
  0.1607888384422159  0.8511586755401312  0.1601222964376216
  0.1569402346457711  0.4826854538184268  0.8346766746316807
  0.1577255605063192  0.5233409429595999  0.4937677418365181
  0.1446500281453321  0.4924504942091075  0.1639855357097575
  0.1785050716450072  0.1600425865783696  0.8348386162714169
  0.1845582679540002  0.1641949321628446  0.5180821049660146
  0.1685718244974032  0.1499625899411072  0.1732254803335936
  0.6552348018128722  0.8240535316476516  0.8470844811266256
  0.8215050201229507  0.6572128739116025  0.8401718402928479
  0.8058993520681360  0.8545771016133217  0.6826821381746742
  0.6632790098543064  0.8769201896477198  0.4946045752598548
  0.8392584391747664  0.6640308598569544  0.5379242877725573
  0.8197137026750093  0.8287776931620349  0.3443661339441469
  0.6539557867422360  0.8424692110351681  0.1350551678385166
  0.8111152493715780  0.6836538546541141  0.1716047684031141
  0.8464874330017689  0.8541194545394273  0.0013742442039525
  0.6876474614914749  0.4717835426313885  0.8258085884980888
  0.8439898070921179  0.3236903422172656  0.8532627166241998
  0.8588617985481081  0.5041463242849522  0.6745508460164718
  0.6730303661764292  0.5165970048290173  0.4814909056427099
  0.8671180691667768  0.3505150436751321  0.4899460001095646
  0.8372919008726305  0.4985666655732529  0.3301385690007819
  0.6599147937450175  0.4860076865576142  0.1576070998600594
  0.8464740728164907  0.3344900884723354  0.1487395400367967
  0.8375002387921509  0.5141400667563502  0.9878214840638151
  0.6698674840107423  0.1794004221831664  0.8460370426008123
  0.7931764881130843  0.9943275782216969  0.8546384108537587
  0.8717694379140987  0.1613877952942480  0.6611461672727211
  0.6891195919674965  0.1811936222026699  0.4923918856653198
  0.8352427723342288  0.9614253278481776  0.4711404057389732
  0.7548517845072238  0.0630071459271097  0.1670563135678445
  0.8625071858293891  0.2044051627655631  0.3271527092900315
  0.0102105117458471  0.1056459140874265  0.1829162502397501
  0.8676540150234836  0.1511554925448137  0.0152562538381322
  0.3433589281312482  0.8384213178083231  0.7916201172835495
  0.5076990450081311  0.6744398611780459  0.8016185560625000
  0.5301897833325587  0.8657319656416279  0.6758430593307465
  0.3286662060704459  0.8491010450656435  0.5275120071332611
  0.5246876946662929  0.6772672407516094  0.5176265226480268
  0.5176346099454538  0.8263875965011689  0.3287140088814328
  0.3209669539643547  0.8201598068618352  0.1104931858205111
  0.5197985955918384  0.6612372451152759  0.1458475052635684
  0.4974016619622279  0.8434944635563379  0.9737778911490356
  0.3172797047692021  0.5205512148172750  0.8473523325987492
  0.5144676792387736  0.3509610309509655  0.8707211589792363
  0.4608128512781094  0.4928270894923139  0.6709202359098170
  0.3491883008514209  0.5374372744466638  0.4850133387340211
  0.4972390320705229  0.3622973910720061  0.4911349351430975
  0.4971342558296136  0.5093639219756116  0.3010703280660105
  0.3016808180205512  0.4687911850123438  0.1498515831555124
  0.5071091320999822  0.3496998294607003  0.1271077705335872
  0.4927977421153487  0.5035694881642121  0.9884152430859077
  0.3292734062486367  0.1381774288082429  0.8165361340900759
  0.5374623394606500  0.0101878046173173  0.8139559179441594
  0.5193149973701763  0.2058255731303938  0.6359291819287453
  0.3362741230917259  0.1027433126222055  0.5029889012301447
  0.5281191975268922  0.0138808274114772  0.4883500652499647
  0.5446703213598967  0.1939009397603068  0.3007582462835340
  0.3207895266553188  0.1743130862989698  0.1617349112861143
  0.4788925017631736  0.0081439916867232  0.1348485505489182
  0.4885478671783428  0.1578179740306090  0.0003029714745017
  0.9962671343804265  0.7933947404128017  0.8232746876611371
  0.1693973422486632  0.6533316186320458  0.8197003117888806
  0.1370439936956141  0.8542135426321140  0.6743459088713858
  0.9930017785815202  0.8201342200827570  0.5400268570520717
  0.1687454259352004  0.6796274996653540  0.5033654560279412
  0.1802530697043193  0.8368036827689987  0.3370701367637038
  0.0141975379321067  0.9000218123226420  0.1553759489185945
  0.1424071566776913  0.6757430460384126  0.1704887880782822
  0.1697840285202957  0.8280002113496614  0.9774198498221627
  0.0092135650949789  0.4957269379496594  0.8487024400492296
  0.1467380935267377  0.3238745103470556  0.8154485340376076
  0.1538233135417118  0.5261517640005006  0.6786699935648007
  0.0083414461065467  0.5425495291006748  0.4889484396087899
  0.1980573181883072  0.3410012557385023  0.4864824732897075
  0.2093737999730701  0.5151633759778431  0.3535501682168641
  0.9764312672978335  0.5239945799029850  0.1547183444050359
  0.1788436308855806  0.1663658812997376  0.9982672366483586
  0.1528391132262153  0.4634220909177112  0.0234184439551285
  0.9948051145029514  0.1461027312007008  0.8510033068666011
  0.1283597518085327  0.9867370123614962  0.8312101518914886
  0.1762385364552599  0.1799435339574315  0.6638889728249324
  0.0226367899519867  0.1874134159735414  0.5302631121945089
  0.1411573214662651  0.9864285489625326  0.5162730144231120
  0.2216353934100382  0.1483105827887487  0.3467231945105068
  0.1490026550527508  0.3211579595831864  0.1933649070198719
  0.2047947988960053  0.0128054716651761  0.1520820053595986
