Cl O  Li
 1.0000000000000000
    11.7780000000000005    0.0000000000000000    0.0000000000000000
     0.0000000000000000   11.7780000000000005    0.0000000000000000
     0.0000000000000000    0.0000000000000000   11.7780000000000005
 Cl  O   Li 
  27  27  80
Direct
  0.6459398631600384  0.6779899062861127  0.6604194986620409
  0.6724206410605151  0.6603291988230461  0.3297689614630150
  0.6473689981307099  0.6895724581849623  0.9995436344590736
  0.6349085606028508  0.3253043952649917  0.6885999755277785
  0.6580237863755108  0.3450906474777105  0.3001224066900409
  0.6702137003941908  0.3130874167497709  0.9943969955147766
  0.6485125895051168  0.9994674229496877  0.6654153172770817
  0.6533832677180513  0.9953162812921834  0.3120149148873453
  0.6848982039167766  0.9792881103459273  0.9961280652957676
  0.3259987087811095  0.6594309895182494  0.6786930337752792
  0.3341954658471751  0.6614784986402535  0.3229852261744672
  0.3187942288698222  0.6662876390300884  0.9926943411145904
  0.3370801525185003  0.3556913472148396  0.6626042938091313
  0.3374709986660036  0.3423608377420880  0.3462640939740807
  0.3285932567621423  0.3570929925921660  0.0156761940300681
  0.3286396732846317  0.0038573512714171  0.6602490146008088
  0.3389268540072315  0.9993845208887855  0.3567986000659677
  0.3596253032338791  0.9913840994787293  0.0057847132760718
  0.0123964954693189  0.6518291655511645  0.6571300186194902
  0.9874889477044835  0.6858798649156982  0.3509484178450890
  0.0222015417708596  0.6642133285667079  0.9848148504938110
  0.0229384647934934  0.3466121701538517  0.6816349465735463
  0.9964715746537930  0.3190732048512238  0.3311196761946444
  0.0169380272994897  0.3203495073993944  0.0046718417879137
  0.9653119826935663  0.9867652923875161  0.6592187014033972
  0.9829241570063054  0.0016047558725238  0.3314433368043621
  0.0105345790574668  0.9910825078455175  0.9885903110713647
  0.8170694642536799  0.8102737160626328  0.8049490518375397
  0.8107205422678235  0.8400747024318003  0.5068511323792583
  0.8459339421202530  0.8360619505407779  0.1495429061596963
  0.8400428291499309  0.5209225884497807  0.8514073552699687
  0.8469860769536188  0.4876263346993678  0.5047400206782477
  0.8334438692723223  0.5135875228487512  0.1598790641069639
  0.8349908977567216  0.1760953359822668  0.8269191073048056
  0.8177476758408949  0.1861475393856095  0.4981286317797893
  0.8397093913137141  0.1651116341458093  0.1507824175915893
  0.5045159862659896  0.8400541358435536  0.8321694981775115
  0.4947223226904858  0.8057252612273632  0.4904801686204603
  0.4723544980706179  0.8287031604895271  0.1612878349164387
  0.5077174915127537  0.4943234716960667  0.8568048701223749
  0.5422262428052811  0.4946902290246591  0.4940014681202933
  0.4994190755823437  0.4852553876374007  0.1567159187861123
  0.5012768295879869  0.1589573457682110  0.8432993422224785
  0.4988141021016994  0.1774564554642493  0.5094017132051029
  0.5140145516884843  0.1534224537985461  0.1693598058277351
  0.1523536074693314  0.8406045754770168  0.8316384915408166
  0.1863140041270073  0.8238928460228040  0.4969757287610975
  0.1631131921977466  0.8274834160590343  0.1664121339799050
  0.1591728383410388  0.5157585124710541  0.8401730588673720
  0.1719784241099381  0.5108531787472161  0.4963221323031224
  0.1748839607673793  0.5025173947834369  0.1806427555717201
  0.1931819085828079  0.1621854195652443  0.8511212853633749
  0.1660881006051098  0.1729827164530130  0.5190295485415169
  0.1690081512820124  0.1794088036302035  0.1732331765737070
  0.6586707027408470  0.8150616825830721  0.8417520708256193
  0.8416126914055334  0.6672726895391935  0.8180596850489396
  0.7857288987155405  0.8098774448701982  0.6660263635692161
  0.6603855027640131  0.8280952315739574  0.4904310598182103
  0.6855812737531836  0.5220915236908064  0.5216838934730224
  0.8446035915498206  0.8254478096475506  0.3382828407450940
  0.6481744958467576  0.8363889107114051  0.1506414777582565
  0.8232896426359456  0.6858479624126703  0.1650719049694485
  0.8363413290904816  0.8331721019796862  0.9802551774044825
  0.6643572834201822  0.4914471047764830  0.8677701004905503
  0.8416288855695069  0.3346865853766311  0.8437100262208493
  0.8300889243219081  0.4489248738686611  0.6393941702355860
  0.7098762443713216  0.5560259084725995  0.5230351345149810
  0.8244083354832430  0.3385683264811068  0.4668423976617816
  0.8523228636911240  0.5210067171316236  0.3349526323801496
  0.6540886855007422  0.5350344663342593  0.1476384319909891
  0.8627956295328615  0.3366755121104607  0.1754719185295346
  0.8122141300111103  0.5265744731328025  0.9936318200018541
  0.6669783088593121  0.2016037150642430  0.8235517738189517
  0.8172119728966475  0.9910632336274663  0.8246750820029816
  0.8383895669498644  0.1914045698655447  0.6577349516147247
  0.6531078049888601  0.1978950288445303  0.4912784599335397
  0.7962479798662427  0.9987584337924221  0.4926318062168148
  0.8258803849884447  0.1624324311726043  0.3218886990891087
  0.6842352148436965  0.1758393467352539  0.1920412607970094
  0.8645601456394268  0.9832560208499407  0.1676779103214928
  0.8157075350634986  0.1610048953756251  0.9989640745874925
  0.3187540471004626  0.8139310060544342  0.8167561358198835
  0.5112006942418388  0.6501804377170106  0.8522144724024139
  0.5289945582181786  0.8303656533630583  0.6741437287464012
  0.3410500708458123  0.8229772279917359  0.5365211889326991
  0.5122431125768205  0.6530102869005802  0.4963915647811594
  0.4772680908180826  0.8045706173360444  0.3199362294669247
  0.3289299536738588  0.8491652963783894  0.1314605127881091
  0.4647075328714566  0.6713266960629386  0.1530148235807622
  0.5008911655729553  0.8606374040789389  0.9819380141965058
  0.3450864662162362  0.5089112960597298  0.8275542424158510
  0.4941586848133840  0.3180121227422625  0.8745447670472728
  0.5224929657514612  0.5116169764910317  0.6765249591024914
  0.3172691232349019  0.5205964379873521  0.4844833482448004
  0.4545087317987427  0.3383711422920231  0.4901649897041238
  0.5204342826563152  0.4943769934079995  0.3299237776706028
  0.3382485007210818  0.4944440372468502  0.2116394785232895
  0.5101086407942780  0.3203787581080718  0.1556525796155472
  0.4807495931599504  0.4774537681722912  0.0133901094479989
  0.3551375360281007  0.1798474225614289  0.8908222499945330
  0.4687661547319342  0.0044063027497729  0.8048357736605443
  0.4956684262352343  0.1708132855189925  0.6714720965448538
  0.3356499851698753  0.1626947665076244  0.4506373431128933
  0.4680438140478911  0.0131295735209075  0.4904871321109690
  0.5157512543184248  0.1332363879200237  0.3306529401462198
  0.1304312336936153  0.1552224857309759  0.3425678165325128
  0.5025642656238895  0.9963980030529045  0.1675058270865681
  0.5228612210402211  0.1509640380084164  0.0059199358104205
  0.9876876829908353  0.8467954424224905  0.8209540679759439
  0.1715098459753615  0.6630383205141923  0.8414263252172902
  0.1892808356950886  0.8168631213834971  0.6651104216548684
  0.9524153680107684  0.7957792915396873  0.5379038466527665
  0.1576208706366273  0.6616143676759922  0.5008790081036583
  0.1769540809908317  0.8258095872707212  0.3313031358297605
  0.0097474174366120  0.8801960675597134  0.1860132868984054
  0.1916588272183843  0.6640875403980427  0.1568914027954714
  0.1325277402829922  0.8301318096352793  0.0020323040787994
  0.0101389366540554  0.5355346230885845  0.8064895216855301
  0.1663104262337625  0.3403308992879953  0.8612543786157657
  0.1936662557845538  0.4928112201788004  0.6664012989506152
  0.9985347196839228  0.5523800758518095  0.5159645196116406
  0.1850303939623436  0.3374265974355569  0.5193855367510669
  0.1603403667140691  0.4926238537016258  0.3378252746420195
  0.9983723380816460  0.5256241186200108  0.1569913207871886
  0.1946213875757177  0.1209707459420622  0.0191047844714902
  0.1404533969227870  0.4906563437496513  0.9965396956405959
  0.0342072421136634  0.1479546360317894  0.8141202927207177
  0.1830598880900340  0.9944215970646815  0.8421208929101186
  0.2109990111844498  0.1602142051982608  0.6721433041561502
  0.9826839178489259  0.1603376148490922  0.5260915400525413
  0.1463806026360653  0.9830245088287400  0.5069020630249554
  0.0160083949907390  0.1744245031142890  0.1385886675803182
  0.1749941215678099  0.3148771552667251  0.1627407247013891
  0.3291236966030981  0.1397477677345927  0.1880497030180876
