Cl O  Li
 1.0000000000000000
    11.7780000000000005    0.0000000000000000    0.0000000000000000
     0.0000000000000000   11.7780000000000005    0.0000000000000000
     0.0000000000000000    0.0000000000000000   11.7780000000000005
 Cl  O   Li 
  27  27  80
Direct
  0.6574641564719911  0.6599099641612761  0.6731602415088875
  0.6416662636908093  0.6604288656604007  0.2980962582050862
  0.6492395049584808  0.6512802156359661  0.0137704124643544
  0.6678152636568768  0.3186150434678024  0.6437496559477142
  0.6527370395226825  0.3055569805612018  0.3189934705518049
  0.6757383798371982  0.3696858496540166  0.0084719110077872
  0.6591413860347384  0.9958605750323395  0.6722091987441271
  0.6905881852885445  0.9901762292741494  0.3233620689534425
  0.6867934068446070  0.0389290357235756  0.9967897472881333
  0.3405993062096052  0.6792528808925121  0.6738686956973233
  0.3570798639730945  0.6665258874256473  0.3381097702009351
  0.3206087646183592  0.6942651947793339  0.9917217963242807
  0.3279951252337751  0.3316734302576823  0.6474338687371216
  0.3253754965412881  0.3156833937209537  0.3283901341974957
  0.3429468122192205  0.3261392164186337  0.0054112924572555
  0.3658577486133534  0.0056716720049115  0.6856092621511455
  0.3525467126227801  0.9797997503889256  0.3375157480236780
  0.3213683316368366  0.0143428649383036  0.9886759283798247
  0.9831972980682692  0.6492469168928487  0.6684932453933312
  0.0188912445545867  0.6646442470281430  0.3450805278406732
  0.9985956798753448  0.6826696875493056  0.9896438991066139
  0.9879934477021913  0.3334330881150555  0.6865660133587067
  0.9969692908149989  0.3413862242268429  0.3390386674464618
  0.0231541304902103  0.3419337893962008  0.0093236633046845
  0.0073025641768086  0.9827663339838713  0.6975131062632313
  0.0106967065950531  0.0059164271832523  0.3361371995727190
  0.0025786863765871  0.9887051185243905  0.9908451100755403
  0.8274176968924586  0.8214696240547092  0.8255548547868626
  0.8231918298035433  0.8181496584984781  0.5050975316739795
  0.8211806765796601  0.8418594530014295  0.1578083209429668
  0.8312549040460069  0.5190954331721448  0.8371004839918522
  0.8176105111900367  0.4923033629546850  0.4646356437631111
  0.8269038560695757  0.5091702324997651  0.1629369924307060
  0.8247071177265546  0.1852636941594367  0.8479691971427444
  0.8434295145797317  0.1772534736196421  0.4996953609994310
  0.8629689070053777  0.1720867660892698  0.1716603229810788
  0.5106698494647819  0.8380658891197901  0.8618908340859431
  0.5055545584050258  0.8255814032584301  0.4952509131822819
  0.4989344246580216  0.8240995562840243  0.1479169559519395
  0.4763477359120504  0.4963605273404050  0.8308445165072046
  0.4997718248770973  0.4949219187838088  0.4931253481899250
  0.4792487584462840  0.4991723605165538  0.1496980002271103
  0.4961606477672107  0.1864758070901569  0.8497638343943006
  0.4999942112338650  0.1666033816823935  0.4975823869695635
  0.5059905052991956  0.1568464181309948  0.1739890235177798
  0.1669298428023992  0.8259094160497157  0.8196439849364926
  0.1773846027580686  0.8154205370148244  0.5064148864278234
  0.1542854294504473  0.8405150944791597  0.1584386888969923
  0.1541246720089517  0.5013396254811429  0.8504828552747291
  0.1554726843394680  0.4958194803220464  0.5130196762044625
  0.1782241689465757  0.5101933392942082  0.1682298120130228
  0.1745313530075571  0.1707559701793280  0.8406463581355150
  0.1389275219830763  0.1506339117339114  0.4998200560620277
  0.1838413981186940  0.1701347822920051  0.1628022671077980
  0.6586942246820169  0.8289071987136918  0.8085738163857684
  0.8485722952328330  0.6743260899014091  0.7882554846729917
  0.8138806713436333  0.8445133525934259  0.6578089432846884
  0.6673364427135868  0.8353639738316121  0.5163871716319561
  0.8342061284885587  0.6477850697109503  0.4798037859927688
  0.8141878746342129  0.8593880160864715  0.3664877956244461
  0.6772575138741531  0.8083300842606164  0.1408204101435364
  0.8698528841689219  0.6804007232349620  0.2109845708728007
  0.8317361945993026  0.8557406045346941  0.9894776192021695
  0.6813889285016923  0.4996965656043799  0.8107545225064555
  0.8593938833665622  0.3438290328914431  0.8568264331864740
  0.8353643350959515  0.5127595474882872  0.6704962205644078
  0.6494525391855537  0.5269764040407248  0.4516139569973363
  0.8415733395050758  0.3213504604327007  0.4393476470101109
  0.7993519151930640  0.4960814209243197  0.3131829640326615
  0.6439247017985698  0.5036473343327931  0.1526385770068495
  0.8321787811007015  0.3155700953012533  0.1468354084682566
  0.8176207135133399  0.5300765743064240  0.0110347766252086
  0.6566113717971405  0.2087944621796597  0.8634221542312881
  0.8186100149904881  0.9880684791273325  0.8176597140248054
  0.9883506021547025  0.1817643579944929  0.8507788845921670
  0.6936840236153806  0.1465388934899031  0.5281992758051316
  0.8368982463075326  0.2288252462683801  0.6977662210461391
  0.8223565348257842  0.1347413539429514  0.3362666111855731
  0.6728969923117974  0.1278242293500235  0.2084851028769979
  0.8845063353820883  0.0019090373950004  0.1840878053852516
  0.8221235008062040  0.1578649703168204  0.0211486899146432
  0.3617590866824510  0.8268497301808438  0.8640870866040448
  0.4813934730375397  0.6549239430154394  0.8693945619047577
  0.5057184433444388  0.8524553754601863  0.6757051543773415
  0.3274145644553210  0.8247241651884869  0.5066824140166674
  0.4962328737385330  0.6545625297609584  0.4948499861677051
  0.5086214901491691  0.7953341867009698  0.3185508638077010
  0.3345749962406001  0.8116073781947769  0.1671564830675565
  0.4757659605712983  0.6651249303002897  0.1267241596272924
  0.5572147916744699  0.8589044583502193  0.0073883822693556
  0.2995391249107314  0.4791605843277975  0.8161505798841041
  0.5110655943468871  0.3467286789217390  0.7914358565357700
  0.4944711106398433  0.5271776165280970  0.6537195120272509
  0.3127878943408262  0.4955514669082832  0.5190534192739823
  0.4989224814620910  0.3403958701290364  0.4884217532637881
  0.4533861522700899  0.4974777627129448  0.2933064091130850
  0.3341339076993687  0.4937592587813230  0.1413268218936963
  0.5182637382915197  0.3126765220824475  0.1699484581501328
  0.4595410276861323  0.4854581708138573  0.9896696883127419
  0.3370118940353498  0.1777179829705203  0.8235412724383830
  0.5174593336815403  0.0131704327699950  0.8650807605054659
  0.4977329391474091  0.1708014757800939  0.6711300196569253
  0.3317419689523507  0.1591839040016515  0.5092416587202379
  0.4916214236054061  0.9793651268615930  0.4775561574894606
  0.5173692131590272  0.1432956073000871  0.3571319007865588
  0.3442091068155539  0.1849405396173432  0.1880126229658972
  0.4868571410497782  0.9966607394282129  0.1588065494530054
  0.5089762233110113  0.1872371959520814  0.0103017402019285
  0.9628558036403336  0.8457375504190113  0.8463813593651314
  0.1840408899761440  0.6694465048982889  0.8415495066603236
  0.1804885179241866  0.8047982990396104  0.6685162006207639
  0.0041009052120037  0.8350107791153475  0.5364879347517475
  0.1701807503706352  0.6573400313094833  0.5096543669891054
  0.1291504979110553  0.8603638764075218  0.3277854036293109
  0.9864423656161221  0.8458964151675925  0.1397490548618044
  0.1599457148560304  0.6730786129651114  0.1616614995907341
  0.1483446408821362  0.8417767008235243  0.0063091804091108
  0.9958704902208387  0.5389125555099381  0.8493264300253732
  0.1621918656418760  0.3433263255562922  0.8698463790796216
  0.1382694923727134  0.5054216883939723  0.6931946085563873
  0.9813603813970513  0.4950764920789370  0.4960077474355889
  0.1574657102210534  0.3197781488097974  0.5313951130945048
  0.1440171958996966  0.5169405567429954  0.3382470157406116
  0.0073470304411913  0.4956762024562900  0.1969231985372149
  0.2004933103797293  0.3538624915499864  0.1486807435744026
  0.1384392476965668  0.5037737702680171  0.9933738939362271
  0.1759310348425018  0.2080777287248925  0.9888482213899008
  0.1568870117714562  0.0073799266759436  0.8632934106276980
  0.1510272142657182  0.1673040120653595  0.6512228172820287
  0.9898926777451430  0.1604562288582961  0.5248161934948135
  0.1766795695867722  0.9758804413543691  0.4865712866319329
  0.1848105783471050  0.1565689614953643  0.3198080167569728
  0.0223782630335581  0.1951230453125586  0.1886159365447342
  0.1807000946765019  0.9994084796141982  0.1545948218935098
