Cl O  Li
 1.0000000000000000
    11.7780000000000005    0.0000000000000000    0.0000000000000000
     0.0000000000000000   11.7780000000000005    0.0000000000000000
     0.0000000000000000    0.0000000000000000   11.7780000000000005
 Cl  O   Li 
  27  27  80
Direct
  0.6883150377044173  0.6638250782232349  0.6380133733654164
  0.6620931235150588  0.6620521411514035  0.3270252637528259
  0.6621049047693496  0.6565152350325943  0.9981582535651059
  0.6556940805917042  0.3445769733342620  0.6554252170136184
  0.6880772264064647  0.3541265503732735  0.3064160443696729
  0.6739241343746732  0.3403146288909962  0.0097843141535052
  0.6630351785188139  0.0070411046082123  0.6764335820533112
  0.6819696784346353  0.0024352582251464  0.3463527150574672
  0.6623974118561229  0.9768866964249340  0.0028033519764179
  0.3358509211475206  0.6805039335245813  0.6784731965203782
  0.3349813350275474  0.6813517789794201  0.3351622036257140
  0.3209980590477243  0.6491628011907030  0.9876591540201060
  0.3141737776211275  0.3359358888941701  0.6837650039674467
  0.3360837527400513  0.3414357508628896  0.3315769776635951
  0.3149708341292040  0.3477803004244729  0.9943928866644626
  0.3541665206016804  0.9947969281211149  0.6619398457823348
  0.3591002750832922  0.0008126237121334  0.3400020926843937
  0.3162700514193973  0.9961035143885008  0.0045248232360398
  0.0070677639929343  0.6539563546977134  0.6594222200801766
  0.0192335075892991  0.6872373049631711  0.3337164898796743
  0.0073878840270364  0.6919860816067943  0.0111846007392607
  0.9974444212718541  0.3336859527224958  0.6500734911598477
  0.0029736965234750  0.3259510734556627  0.3455229665808690
  0.9993864766549170  0.3453725926102856  0.0020334524803700
  0.9880099347645169  0.0126136397855170  0.6501598465392370
  0.9867205655502901  0.9892706671347802  0.3404352865706880
  0.9666213256940475  0.0007446828684188  0.9861472440984861
  0.8204275132260963  0.8152699847549773  0.8346065159495317
  0.8558852830128878  0.8101892277498948  0.4974813495668046
  0.8421625913741050  0.8547673887449869  0.1866258499144531
  0.8358548835355618  0.4903375258842151  0.8504345298757043
  0.8268443697298220  0.4823125484124997  0.4787615032944534
  0.8403554036454695  0.5116939844785207  0.1702652504205982
  0.8289764123877684  0.1594575679884455  0.8393069530136938
  0.8154973619459687  0.1751014846342956  0.4905909352230807
  0.8384955039130997  0.1589482918955328  0.1615754721537083
  0.5036795848276000  0.8312596974084264  0.8262312182256571
  0.5148678493191018  0.8137199603502424  0.5245219192304393
  0.5053694053528368  0.8362867707599362  0.1618811369987103
  0.5079741151717632  0.4832514860396900  0.8290277074314411
  0.4858556806770892  0.5165378613500790  0.4966613580740006
  0.4955366328713366  0.5206296407612925  0.1559052880653963
  0.5001282046681861  0.1465636835404801  0.8584855394660076
  0.5125705047323946  0.1781116963191213  0.5046522063451417
  0.5098040557007818  0.1457718597716376  0.1458169817977449
  0.1436098184323796  0.8411811329376822  0.8308170006088859
  0.1718322179401039  0.8384779221163863  0.5043152867636707
  0.1685567458493904  0.8323056784594821  0.1699977633171640
  0.1575302408132801  0.4878474302608121  0.8458797593164851
  0.1868825881122635  0.4970940954626972  0.4909503242070651
  0.1572168331336282  0.5211179352905070  0.2008671394117858
  0.1579914404818962  0.1491479077419798  0.8157272786182704
  0.1725702062350866  0.1518932841177220  0.4804168707358365
  0.1444726738529513  0.1742484165615754  0.1915929643738505
  0.6639063840551844  0.8068229468846994  0.8501099988296731
  0.8090870640786526  0.6627628220373857  0.8382378143081557
  0.8383888653433332  0.7877769096645096  0.6505339317270274
  0.6949559404667177  0.8304379245575852  0.5208747101057116
  0.8192896302944902  0.6432680040480770  0.4792562350038475
  0.8670771507058735  0.8316805837301007  0.3471067558174887
  0.6829457006973253  0.8497405583059368  0.1852026258136318
  0.8019796884230920  0.6703638362962718  0.1559867244674786
  0.8460389074336496  0.8383151707684513  0.0182689908033312
  0.6638723763108398  0.5088615037433054  0.8316016888242275
  0.8203677567610337  0.3222482171349805  0.8539074493106662
  0.8114279304810387  0.4585236454185372  0.6696307781366844
  0.6599592590136653  0.5148843157521429  0.4748686287022458
  0.8439967423857567  0.3208537984033273  0.4826757541831063
  0.8602568166067456  0.4704841286191209  0.3162690595561402
  0.6672686973502066  0.5159421590283094  0.1473875525480211
  0.8331422800991612  0.3301552808502631  0.1298526332536194
  0.8315115277870180  0.5248824306478137  0.0156966908202261
  0.4671281016914405  0.1616167561137528  0.0108690597416606
  0.6460593222501915  0.1574808071203011  0.8968729144864458
  0.8052170637430576  0.1662915557920739  0.6739950243567542
  0.6685369028163903  0.1591975403217917  0.4992831932213290
  0.8505639617019772  0.0129445991555444  0.5242300194248150
  0.8180142589107481  0.1493073190435951  0.3370614349338347
  0.5404292035599766  0.3649166408580741  0.1779628021394721
  0.8724755562372983  0.0027954724156505  0.1447105863937150
  0.8226700810531626  0.1302701177641235  0.9919091206818689
  0.3248594967191181  0.8205159222325903  0.8203618054350598
  0.5018642190461576  0.6599937819395371  0.8340770477584145
  0.5094749498034280  0.7914067505483758  0.6753578442259538
  0.3475435933613907  0.8319067352299920  0.5321583177376080
  0.5249518337692427  0.6602010672383992  0.4802280062984942
  0.4999904733035904  0.8234830169558364  0.3304552281678477
  0.3312539850338551  0.8399628459819470  0.1775230091313587
  0.4927367024057084  0.6866269469230055  0.1352475772824948
  0.4897229280048085  0.8500221748174379  0.9999898218922669
  0.3347866204484696  0.5068165452021272  0.8531966064830443
  0.5326820774566384  0.2998884693543946  0.7982408203595598
  0.4926405090717051  0.4887160447309470  0.6629714140274541
  0.3263011821668693  0.5250368420013023  0.5365445880206817
  0.5044086865751021  0.3270550700991540  0.4921901494008852
  0.5184655043020704  0.5043155994888618  0.3260471160061145
  0.3395422188836667  0.5218760650769317  0.2135230202561015
  0.6662662381148298  0.1240971554911931  0.1646651162128246
  0.5195953711225095  0.4848638984611329  0.9900348087761471
  0.3041284972228835  0.1665697917718456  0.8301412181462667
  0.4994707216108572  0.9778317346973336  0.8049486859898910
  0.5087988434575296  0.1227674830513769  0.6534062905910277
  0.3427686226575401  0.1556232859057650  0.5179277366312028
  0.5064694344261547  0.9889487967392830  0.5087458075998023
  0.4980845011747156  0.1650042412124013  0.3082832517185359
  0.0031975479460146  0.1733036490353546  0.8908850011438841
  0.5336445775924104  0.9828041780488137  0.1704960577426322
  0.2497762473479906  0.1655921399714059  0.0827108601913602
  0.9776187546148110  0.8163966937134416  0.8435244801081624
  0.1285132442861328  0.6750077557281658  0.8328662910889270
  0.1795500730920598  0.8741913977523210  0.6613057228065378
  0.0024286547338081  0.8693757392114868  0.5010685997994201
  0.1680582085114627  0.6663542827526343  0.5168130113540790
  0.1801036098593830  0.8158091694444788  0.3338721562808708
  0.0027527012200892  0.8186939168439189  0.1820491767484596
  0.1459865751506723  0.6697187012889729  0.1692115366562449
  0.1482021594520176  0.8403050286667095  0.0034876287841087
  0.9949673948448452  0.5121185549724989  0.8686594420116120
  0.1552388475818333  0.3394850423560378  0.8079041209150761
  0.1477545628811394  0.4909346451953323  0.6712643239421131
  0.9707677224536003  0.5074793723335672  0.5003090125382378
  0.1520612287269303  0.3408755137602225  0.4972635785467693
  0.1814273208225864  0.5233514748711580  0.3502506503259166
  0.0058372713186886  0.5087081045250653  0.1676041444256337
  0.1584017499902252  0.3427216889386245  0.2103219805915518
  0.1907340461301087  0.4900442900600629  0.9980345198728489
  0.8116311168750576  0.0049188821925130  0.8261576157503969
  0.1197438312179026  0.9945968568162351  0.8246087249371405
  0.1582445249007464  0.1544040475428964  0.6574369775186508
  0.0081808160839758  0.1765780482627050  0.4982149451948094
  0.1840034276993943  0.0024876561506612  0.4801905572943052
  0.2133283663758524  0.1447741575719281  0.3246011188622053
  0.9908927926339653  0.1709440783735789  0.2021835225157911
  0.1546157265161860  0.9832036716268451  0.1455652131547176
