Cl O  Li
 1.0000000000000000
    11.7780000000000005    0.0000000000000000    0.0000000000000000
     0.0000000000000000   11.7780000000000005    0.0000000000000000
     0.0000000000000000    0.0000000000000000   11.7780000000000005
 Cl  O   Li 
  27  27  80
Direct
  0.6689191088315166  0.6673748423224639  0.6697188092032080
  0.6799110190848383  0.6595776762524472  0.3291408446342561
  0.6809838824480904  0.6425164362542739  0.0065212761150313
  0.6566766042653325  0.3553043957606969  0.6673846633788708
  0.6815833903983937  0.3400628939682388  0.3302616832082799
  0.6542961026466209  0.3228986793298981  0.9498506804796126
  0.6862228564351951  0.0158226546365290  0.6635570107820669
  0.6773047303349246  0.9979032368640927  0.3305699796049276
  0.6691004429826112  0.9700608141201811  0.0047629643975385
  0.3344899468671170  0.6523993701586823  0.6465320457111945
  0.3349966420151465  0.6524406652768151  0.3399206518249333
  0.3131024966915069  0.6719092487204864  0.0032836382724857
  0.3308866441694626  0.3359939280855230  0.6968269895014326
  0.3303368927879683  0.3462527082930541  0.3485040040704591
  0.3155828150884110  0.3353742179156627  0.0337309160134734
  0.3264727425941089  0.9923197601884610  0.6510013110846329
  0.3480447455109031  0.9952678122195939  0.3419133437018868
  0.3560019908917990  0.0101874410862166  0.0203313915684748
  0.0208803930444378  0.6779152592842013  0.6476974992069656
  0.0097064325543333  0.6719433779210607  0.3394326002081785
  0.0034914230202638  0.6905433468945974  0.9879959223845880
  0.9736131139462142  0.3383155841608955  0.6856228952146468
  0.9850229108053677  0.3337899226114188  0.3412167112531517
  0.0081295195115571  0.3304980134442720  0.9770420329918706
  0.9869102811535468  0.9976400193899452  0.6598107338592305
  0.9827269376619222  0.9903617826527724  0.3340886880385249
  0.0120690029319513  0.9938712173971568  0.9836994209070286
  0.8279711834044552  0.8310944393212880  0.8398251820461766
  0.8269736229036803  0.8270433072616481  0.5030091622537054
  0.8366336036555821  0.8224810873870010  0.1647116699768706
  0.8432456808060096  0.5305637920654799  0.8231727232321072
  0.8397657169097192  0.5074662179315510  0.5070940591452302
  0.8318694425561839  0.4741398835215572  0.1419279184980455
  0.8449279305595888  0.1710333318159909  0.8460932951538043
  0.8403691114593760  0.1628724448231268  0.4803842957661664
  0.8119026861432742  0.1886081899672925  0.1624932314541250
  0.4893825504234321  0.8337046146705555  0.8279778555663584
  0.5020831069176100  0.8252865643537902  0.4829469007587613
  0.4803030899645745  0.7999530620000244  0.1729376676302611
  0.5084319884180563  0.5180129911026480  0.8460550769268267
  0.5056665515216918  0.4912456574706581  0.5014873966651048
  0.4984971117327024  0.4827891055290457  0.1636198493204170
  0.4928390327819607  0.1532694776497647  0.8353204514536356
  0.5104235467035315  0.1621260861696403  0.5076281426730801
  0.5026996592254956  0.1944031096036113  0.1946744461654871
  0.1716509885051783  0.8311122529016590  0.8338530982559863
  0.1690787176209616  0.8432185240634150  0.5059911960932171
  0.1656799876997039  0.8403063275560396  0.1734508202011751
  0.1582541942950121  0.5058860318964156  0.8443448112695729
  0.1584725118680815  0.4892257189128189  0.5321852563205411
  0.1612634444513519  0.5170617459108378  0.1702560760178700
  0.1606541693959020  0.1575003750508641  0.8158519894661943
  0.1671728871910216  0.1657896412786291  0.4760015072283471
  0.1663244142123289  0.1852607145750113  0.1562872128439835
  0.6728301208873747  0.8090621172935435  0.8337285651350294
  0.8539911563690626  0.6822577648391365  0.8662645838577009
  0.7911487314196071  0.8393460136324044  0.6796193947463477
  0.6692218182415934  0.8390299035516392  0.4975678017023406
  0.8478227993115123  0.6778502397158471  0.4864164194192888
  0.8537919681521872  0.6516897418933586  0.1680957947864947
  0.8342106328418497  0.8216234444629584  0.3113946724708186
  0.8409893479395655  0.4769226076879635  0.3435563630932399
  0.8875854637074101  0.8560303749495016  0.9926145232532445
  0.6925975271417691  0.5398295663808540  0.8234579024596824
  0.8394345462564586  0.3262159526063685  0.8531388900738054
  0.8210491499555725  0.5082605821598668  0.6591150325749240
  0.6736793428461513  0.4989163876054507  0.5173055321512534
  0.8319923562607436  0.3219472924391531  0.5141333383412816
  0.0033460440983700  0.4844335014243366  0.1555985054142430
  0.6776704350428587  0.4988397487244456  0.1851537757091684
  0.8017400385416315  0.1691065906718200  0.0022848708004273
  0.8293109265899923  0.4968492835450385  0.9801558721440987
  0.6455008092800903  0.1227168594024668  0.8267649126847347
  0.8369375681133669  0.9902432824904800  0.8484701126002119
  0.8428814740582430  0.1719731803649047  0.7010996577242316
  0.6803466420957286  0.1814535475956341  0.5015982052320942
  0.8221113251706020  0.9974299080196941  0.4825474717043522
  0.8288006484831838  0.1749979263118967  0.3338487917419607
  0.6673715945221979  0.1531544586001421  0.1897996181980342
  0.6609510943315783  0.8434630764250342  0.1451977529954257
  0.9245373070624071  0.0892073183911689  0.1199039668288050
  0.3363130453618568  0.8157767035019239  0.8324221819272776
  0.4887131646555827  0.6848136897390923  0.8261866190892367
  0.5152505411591473  0.8519878257967680  0.6776716011890112
  0.3406966436078749  0.8337253432004416  0.4706769470846419
  0.5219802284254331  0.6483473879054339  0.4590699419981923
  0.4907061399304057  0.8059251457902145  0.3277782069494011
  0.3296631750812559  0.8466452091602323  0.1717815257787748
  0.5187913141411586  0.6399175563343781  0.1778034471085937
  0.4607708634564869  0.8394056081558271  0.0225560117072498
  0.3483202487255044  0.5338952554781323  0.8492887275890784
  0.4960321980342784  0.3529813024532718  0.7767908562536335
  0.5011732378147524  0.5208529211532911  0.6612206382601834
  0.3031403530825625  0.4973721121289267  0.4799378226654139
  0.4913365787338985  0.3514703869545334  0.5470078555764116
  0.4678557292241241  0.4737194425393921  0.3092383992950266
  0.3582404696924620  0.5083226058078858  0.1290106942112531
  0.4966020706645098  0.3213615697709324  0.1512503015378598
  0.5443514133343255  0.4825563953927448  0.9989681574403394
  0.3328869270607787  0.1702525909281179  0.7864212016854637
  0.4587631514924480  0.9918825202915116  0.8361572039061526
  0.5050087445810835  0.1348531606170415  0.6728265907259746
  0.3249616449110257  0.1613842011539515  0.4551603874170919
  0.5114579084419364  0.9945994759094801  0.4661873175500065
  0.5316893179795850  0.1984526627322636  0.3564988199117737
  0.3155328156071424  0.2013742316120387  0.1616399407116502
  0.5016382127478448  0.0119097220540372  0.1966082317709865
  0.5100547246190325  0.1721707694080878  0.0136559243874432
  0.0023502430580862  0.8355083206539367  0.8231949092367509
  0.1691924310161138  0.6671302699610525  0.8516537232957853
  0.1450305258190765  0.8608960734570145  0.6681878129411424
  0.0161139799441121  0.8266402345203447  0.5020746780216079
  0.1869343117260983  0.6921685931909893  0.5346408988600903
  0.1523415532079577  0.8614934761660010  0.3573966243624710
  0.0025532539832778  0.8204775454201854  0.1670569897743496
  0.1849522472692525  0.6661236812138623  0.1791795057068418
  0.1535833723082170  0.8710778301721459  0.9988371746456582
  0.9900667957233528  0.5264802311924830  0.8315172520444319
  0.1604145767399124  0.3293939155872559  0.8303987211387744
  0.1751975104154002  0.4862828344647135  0.6985158788622411
  0.9992332390854536  0.5413781737962410  0.5308810998103358
  0.1288075058695299  0.3188344299974397  0.4918077804893851
  0.1421964256674639  0.5265269513555469  0.3098583726200515
  0.8146779106304027  0.3294567287007685  0.2010179633491170
  0.1734151807284640  0.3316000870307915  0.1686371859308376
  0.1658848641166751  0.4947315727222086  0.0068827779313467
  0.0046993842987122  0.1636520521195217  0.8634629934902651
  0.1886528971350934  0.0230656083389442  0.8434635248661287
  0.1123664517447836  0.1629661685471241  0.6564074898147652
  0.9980034033502424  0.1347890722131160  0.4801883058966757
  0.1771181787480810  0.0086154976275098  0.4865465395268168
  0.1074981115642727  0.1945029871099186  0.3019087587389282
  0.1727986689059885  0.1808413474693164  0.0016211738652581
  0.1819623795029187  0.0267670653826456  0.1638596241607513
