Cl O  Li
 1.0000000000000000
    11.7780000000000005    0.0000000000000000    0.0000000000000000
     0.0000000000000000   11.7780000000000005    0.0000000000000000
     0.0000000000000000    0.0000000000000000   11.7780000000000005
 Cl  O   Li 
  27  27  80
Direct
  0.6711674524306354  0.6763846900225507  0.6464652817617119
  0.6645649298369524  0.6445477328732103  0.3060647242590910
  0.6695654042741355  0.6732523743413640  0.9936144170127726
  0.6541405845454960  0.3645509211672581  0.6637818227549294
  0.6689129009222285  0.3220290951135357  0.3372254131208933
  0.6710251057293073  0.3399434436698393  0.0051001278110597
  0.6764141186456273  0.9963898631477272  0.6610680047562308
  0.6820832905986911  0.0045781881782971  0.3522972000749079
  0.6910216594039283  0.9962020250787852  0.9960931087185573
  0.3094044647357435  0.6597161989861475  0.6536837898675415
  0.3271229651214911  0.6719201614420744  0.3218682849976635
  0.3585906953322331  0.6661894516659111  0.9922188634244722
  0.3241350608975391  0.3339787282242571  0.6648577630093364
  0.3152169145545638  0.3521314953596621  0.3193865091260018
  0.3488602699670462  0.3207878529303680  0.0180445620888350
  0.3341905031336765  0.0043840324876518  0.6791094370143173
  0.3169299332196928  0.9824804885393547  0.3395996799864750
  0.3501242649505968  0.9836670551764064  0.9775262400468567
  0.9643789628067972  0.6499396202536357  0.6505942267792449
  0.9915598150484380  0.6759800788356700  0.3321920645308437
  0.0121816374131864  0.6769227411205740  0.9746557789364472
  0.9888477309639367  0.3217962230355951  0.6619586432893698
  0.0127470313449440  0.3542527284131562  0.3091239030472320
  0.0077482199724908  0.3156331290813361  0.0076946511212959
  0.0169637031851278  0.9959599647105430  0.6816093301069244
  0.9969015356289866  0.0087445600595606  0.3603464687925839
  0.9895435682539173  0.0356279925629662  0.0306198820280582
  0.8395574463194503  0.8299944728796960  0.8388145817349016
  0.8516556203992195  0.8303600561314002  0.5030803320958682
  0.8334768616306369  0.8286252563157266  0.1685385194783271
  0.8487955690998393  0.5100042704266319  0.8417638628777766
  0.8420908613314828  0.4874186747867288  0.4933093403499274
  0.8404348461235408  0.4920242950208252  0.1742302620474290
  0.8278471224668489  0.1673204673813133  0.8503788342284611
  0.8097509539345318  0.1530445223730771  0.5174855672607290
  0.8380706601250326  0.1700690522257928  0.1852707547926715
  0.4994818247169597  0.8323865938110585  0.8457833353468481
  0.5060556026695897  0.8504887541840460  0.5128350487070157
  0.5040510080821156  0.8327788164624996  0.1851429828389197
  0.5079417774330066  0.4931686151326109  0.8308927206022881
  0.4912616265985423  0.5118534010399591  0.4864829334393092
  0.4890893819285314  0.4837204540454841  0.1555057194675255
  0.5031700050765409  0.1679005828202582  0.8401594260820906
  0.4879331186208152  0.1730317745247658  0.5021031762417003
  0.4917377350193667  0.1612271297883708  0.1699753061914763
  0.1619946884053647  0.8370767475810972  0.8269743806872322
  0.1702558881226928  0.7946047995524137  0.5175973069921469
  0.1658119666158730  0.8302815144361283  0.1685066169752991
  0.1504784718506922  0.4923982992377960  0.8075481044969419
  0.1518212514419745  0.5034309378135112  0.4863050810334689
  0.1660688769059619  0.4993455955824772  0.1378540402508741
  0.1671210218606803  0.1554173418852537  0.8414168219438222
  0.1626148641574393  0.2064870954508096  0.4997857104062560
  0.1770882261458665  0.1775496426328302  0.1754590549670421
  0.6635766404950525  0.8364133536539180  0.8395262342707224
  0.8534348731950007  0.6521844957490682  0.8888091237834295
  0.8503806538695768  0.8173350900474208  0.6693054496592803
  0.6806735886247877  0.8291202309375801  0.5096473084996292
  0.8299944686097503  0.6490290224133992  0.4801815008393056
  0.8266531267570741  0.8221587646994220  0.3307339420066593
  0.6574531817571189  0.8067254835201062  0.1638083863659786
  0.8254426130000465  0.6559483433398162  0.1838099399887266
  0.8302689596891032  0.8188449529255009  0.0070823744522502
  0.6863789545343325  0.5015638316781732  0.8123463543115044
  0.8330621290912726  0.3112518992317991  0.8173342377861980
  0.8358355416133941  0.5004782558962019  0.6677690283522835
  0.6758472014503208  0.5184217134622480  0.4834673371949623
  0.8312793135794171  0.3147639680581673  0.4968798296228303
  0.8824386208717471  0.5241901556404699  0.3262218025841007
  0.6601356640485286  0.4814720563193872  0.2022310444211744
  0.8353398382541616  0.3373774986309246  0.1835555499154060
  0.8354991888276619  0.4752028501056912  0.9999820165313219
  0.6717815351285148  0.1210642569939226  0.8526742760009011
  0.8374594923766682  0.9920322435669038  0.8553272849138789
  0.8013278834269348  0.1840414578730486  0.6789172932587704
  0.6590525983619731  0.1460580260302271  0.5132723316197132
  0.8243660249790805  0.9890369109028133  0.5122225854255334
  0.8360123818839859  0.1593398720402380  0.3521762701554350
  0.6351736558163174  0.1834836701376823  0.1479757773457785
  0.8062394114184929  0.9895183229123390  0.1629443062617564
  0.8573760468812598  0.1728708652629830  0.9972008597512353
  0.3354597207351087  0.7884913407107339  0.8091914882569845
  0.5023736165777285  0.6829366463392262  0.8798367472338473
  0.4988721144433532  0.8304398123889702  0.6783526837318302
  0.3313479010459777  0.8073127648766094  0.5478570740266869
  0.4916310559641905  0.6585270615255648  0.4950137356227406
  0.5073146584331283  0.8014397893699380  0.3398916202775095
  0.3278378969755163  0.7953466542040450  0.1693013860577143
  0.4920159912418433  0.6538526565799906  0.1423562000198840
  0.5421543779518666  0.8465190787691935  0.9995183811750452
  0.3518076078102443  0.5167727022302246  0.8290326589282786
  0.5288894143577981  0.3355805739537073  0.8231775779727980
  0.5056805863173706  0.5335811513287698  0.6691495403456241
  0.3195059996110908  0.5016680411233434  0.4867345907474592
  0.4932216872350889  0.3520866375254552  0.5384850255102360
  0.4755721537451640  0.4932265497542266  0.3413411598947877
  0.3215339745228018  0.5137845955792230  0.1559784675993253
  0.5052967846311959  0.3362991494946265  0.1625031974778200
  0.5152080178371482  0.5048387369731476  0.9997212818723825
  0.3465684313960901  0.1877164804744011  0.8335998180229377
  0.4797475355278913  0.9893749172645073  0.8560827426632479
  0.5192328748657409  0.1607860007617295  0.6716200815160291
  0.3177434470469074  0.1486750737778309  0.4947549528824423
  0.4749514719254653  0.0013920311718437  0.4994470904375676
  0.5250445149763625  0.2135368198826240  0.3697921602697047
  0.3334467861531882  0.1852511821645827  0.1644285519967007
  0.4837291946240843  0.9968217311368460  0.2021302357504387
  0.4763819024292547  0.1625120354861524  0.0121347625714903
  0.9997476973489100  0.8621259613863064  0.8338752807521290
  0.1389784292172884  0.6520936869745863  0.7914584738517754
  0.1709763462351741  0.8523872769974931  0.6487022626022074
  0.9986922316417003  0.8278675313834011  0.5268094786247681
  0.1454263987585482  0.6585510288882458  0.4779205121507193
  0.0126297248696601  0.8573992897765074  0.1740540493006911
  0.1625279521036634  0.9849282500979140  0.1889183080433839
  0.1438929733718865  0.6818662121005701  0.1884006615919673
  0.1545153834100927  0.8430534467080200  0.0121412908438421
  0.0071304221056653  0.4816747262815170  0.7871698543774627
  0.1544865274341622  0.3217563853922200  0.8404373989066979
  0.1556506347900531  0.5017877969659283  0.6430655599479108
  0.9952612860089990  0.4794334135021586  0.5101049555735235
  0.1380010304506608  0.3468695256597150  0.4884355852458379
  0.1619873605461666  0.4966185388547302  0.3095588580488583
  0.9989038952953154  0.4557496106323849  0.1435837783771990
  0.1681709806032621  0.3317419700535162  0.1626201800698244
  0.1594398363687721  0.5035035686389330  0.9882339060325388
  0.9998492531019759  0.1238440864535186  0.8342779486393330
  0.1967106541472871  0.9859715087480643  0.8100930173653955
  0.1783282740094411  0.1618654733681533  0.6660378722235037
  0.0158123019221109  0.1490800493334011  0.5276592673792837
  0.1522309435478020  0.8967244387115128  0.4023698789646082
  0.1489494290096559  0.1717843785592881  0.3494726949654497
  0.9887381863008387  0.1621312094776078  0.1614782992039873
  0.1917909076175125  0.1660182744134899  0.0035202732502180
