Cl O  Li
 1.0000000000000000
    11.7780000000000005    0.0000000000000000    0.0000000000000000
     0.0000000000000000   11.7780000000000005    0.0000000000000000
     0.0000000000000000    0.0000000000000000   11.7780000000000005
 Cl  O   Li 
  27  27  80
Direct
  0.6561328305645723  0.6735892650201650  0.6874438299540008
  0.6767150461792992  0.6636262104894971  0.3510555385174830
  0.6793698769357237  0.6692680547908553  0.0278201318783074
  0.6518644942806362  0.2990992433729985  0.6634091805217387
  0.6585466111902496  0.3235926329852232  0.3160570149782784
  0.6647636721959506  0.3435644298316697  0.9861063452652752
  0.6649507552752558  0.0059893712288040  0.6386124337328780
  0.6531241978107339  0.9968371448877278  0.3407786006035964
  0.6488409224105324  0.0138437640583469  0.9892473615140907
  0.3616151168775777  0.6452035676114718  0.7033703043971330
  0.3281241687907920  0.6620888985034817  0.3119389605360176
  0.3336964389151786  0.6744425355199349  0.0076504056582006
  0.3262283584998107  0.3264577652035504  0.6473611283925744
  0.3662932059954562  0.3321551352446330  0.3333929889682642
  0.3382923426508909  0.3384313049488377  0.9896573623211689
  0.3227745481783378  0.0215382616591090  0.6896547381904987
  0.3354354289707804  0.9972912058399204  0.3119210457421219
  0.3274604509803334  0.9709944742967113  0.9915239611237137
  0.9933064392483671  0.6846301626195070  0.6754482863884141
  0.0089371500595642  0.6923855477464718  0.3274020997051597
  0.9842716822730910  0.6727706500312987  0.0097172693364913
  0.9894808855670345  0.3635156398471647  0.6733453932256204
  0.0216851870834113  0.3187671364897751  0.3183090968766793
  0.9937358850713198  0.3311132634626855  0.0080389479328447
  0.9991229254309286  0.9938894872730495  0.6745983356922589
  0.0029249825506167  0.9976820246281426  0.3074630150699400
  0.0046657678811153  0.9824196885060354  0.0033422488106719
  0.8435627483766766  0.8659862568062572  0.8428867516875495
  0.8274484216314506  0.8432982330792209  0.4955044852418031
  0.8247096646202327  0.8495647267704514  0.1704933834622443
  0.8330744361375244  0.4975535609798968  0.8386439616972819
  0.8510716583279631  0.4751748862701666  0.4903278587859971
  0.8332723288212820  0.4844008634275754  0.1714816525614392
  0.8340898102186701  0.1622254812160266  0.8429367106834079
  0.8494668166781777  0.1575174733802071  0.5062863571883870
  0.8285483292485386  0.1566738586507065  0.1606788496579194
  0.5007234307504490  0.8539651669470021  0.8432461811569437
  0.4747406638775708  0.8228824934701428  0.5104375691813837
  0.4960388234815713  0.8486036031386173  0.1700206758158544
  0.5014044763163594  0.5042224796458716  0.8327324440803530
  0.5116256253353569  0.5151434594609888  0.4958377611363802
  0.4989743395850688  0.5098295469800965  0.1676000632772507
  0.5019061310308521  0.1699001586782878  0.8388561052453362
  0.4774305549989984  0.1510273281631484  0.5057324358096694
  0.4830294847658265  0.1653917742775005  0.1520749611882045
  0.1728915282764409  0.8235770611629711  0.8387803975287597
  0.1638247802363027  0.8466565788040694  0.4983039298825122
  0.1803103581906240  0.8214324680279451  0.1607285353772610
  0.1565223559970325  0.4980852963539704  0.8305338434084751
  0.1648601338672509  0.5003154351601872  0.4805971500229406
  0.1785061056542085  0.4957046327936191  0.1573031053281517
  0.1682937318478143  0.1507532014524851  0.8324184392409045
  0.1744439210776567  0.1601932755789775  0.5025474890955685
  0.1768699687825442  0.1747338332265427  0.1783428769246007
  0.6665718720598346  0.8521738494990605  0.8344686203999645
  0.8296675079207551  0.6688473708962306  0.8295146636987955
  0.8218870218396314  0.8453931101308481  0.6623536853993482
  0.6537812355285535  0.8310316396941260  0.4838529462044261
  0.8214598197940074  0.6791928910945454  0.4942973722592098
  0.8548968818001709  0.8411701579914480  0.3372227063209747
  0.6677549367089273  0.8086184309297221  0.2039596152062653
  0.8322091819564142  0.6458059905112902  0.2320585746991007
  0.8382348684293569  0.8679628354900567  0.0171403565445627
  0.6664366507906549  0.4948605119964943  0.8342648978171763
  0.8191497223031711  0.3548906686002268  0.8302316603087273
  0.8307952694998777  0.5195648305944756  0.6564506292330956
  0.6688659373283371  0.4829985702836901  0.4810794931968946
  0.8893990339708789  0.3276276720944142  0.4924277560284558
  0.8572165338477516  0.4566474671512321  0.3327809507835863
  0.6650981626528257  0.4925572160545269  0.1478933142882899
  0.8538936533420052  0.3105223029994128  0.1514437531619229
  0.8383900085202242  0.4943930674533959  0.0259464063784451
  0.6575871069748129  0.1596376436916903  0.8266025481622401
  0.8405274762231019  0.0000037350365956  0.8493297617660922
  0.9982994426193357  0.1569531371297840  0.8570525966234701
  0.8016086897118692  0.0154542230587606  0.4889390067982097
  0.8240494285550282  0.1649788332175258  0.6690800528620194
  0.8053339951923598  0.1677464664473792  0.3292696714227120
  0.6501353624223534  0.1818630305180576  0.1606429897060703
  0.8009304781246541  0.9988090121610194  0.1837500273045713
  0.8266842190335355  0.1571360704545709  0.0013984207676091
  0.3165508880508175  0.8774771497370157  0.8139698857005215
  0.4601074958547815  0.6759515482044063  0.8707305113988657
  0.4894557743700667  0.8136882568741224  0.6820063964873996
  0.3255135278593104  0.8472969770184062  0.5107862700171456
  0.4958346555592740  0.6821696213453556  0.5126282751983245
  0.4608911719348747  0.8174850595885566  0.3478067463119159
  0.3418796536116213  0.8487076506421479  0.1457072539721390
  0.4804155847588452  0.6829330952058920  0.1781404498749305
  0.5316763080030599  0.8508554826099685  0.0231362609378228
  0.3397566392000901  0.5042801308696176  0.8463094692141929
  0.5034850215328699  0.3263031514230122  0.8315721322316434
  0.5287760546916150  0.5346888437273051  0.6461507765771864
  0.3377996352119935  0.4967266869674039  0.4765661392120380
  0.4876163602551234  0.3285255777586363  0.5513340679678942
  0.4905772607106495  0.4926455552190030  0.3393870158506386
  0.3462357217788843  0.4930673727051058  0.1579654162706152
  0.4820096977749980  0.3244415310607202  0.1715947283113849
  0.5409990857756211  0.5445280129035748  0.9970489278420994
  0.3313915640422238  0.1787396621124663  0.8407015112009497
  0.4832407376348622  0.0088391601093506  0.8191187391651129
  0.5056988447188829  0.1801163684772733  0.6638286903394752
  0.3279196769852152  0.1478028474462468  0.4656345117341081
  0.5057022454933175  0.9851180183050963  0.5187734341159829
  0.5962023592100325  0.1779426865752098  0.4306880321893737
  0.3230385130511078  0.1619804938791633  0.1563567487495911
  0.4984789196237058  0.0077302438559677  0.1824582188443959
  0.5178937789283947  0.1880056995830048  0.0147997507670030
  0.9765469787610112  0.8366508526513310  0.8435427772701205
  0.1324618768732325  0.6446412657528979  0.8535384630411953
  0.1660085430054399  0.8308370668139829  0.6681921673367561
  0.0012536886866625  0.8454163487561500  0.4760622982854089
  0.1372135279809610  0.6813680102286617  0.5179696772725624
  0.1871611778034325  0.8164076618593918  0.3387800585849075
  0.0091608148696674  0.8195536211237262  0.1512114276370164
  0.1850899644739119  0.6722673759004086  0.1612062935785400
  0.1682643090761447  0.8310378744472560  0.9836977695451125
  0.9877045375994161  0.4679505482653068  0.8668162200248030
  0.1468328512599364  0.3205662878645389  0.8526504560597020
  0.1363389621555658  0.4954581981033506  0.6750140398814617
  0.9953090551114308  0.5083353924410708  0.4955468734660040
  0.1423853974010998  0.3244358833460344  0.5105303617409527
  0.1787944629864637  0.5284560743825496  0.3149991109739970
  0.0117398234117155  0.4780672854120843  0.1688201923191378
  0.1986600868453582  0.3242931115479020  0.1807989648036592
  0.1659166613675946  0.5045165251782227  0.0021330482991288
  0.1882633121180669  0.1525959454923953  0.0213074107416221
  0.1567353193746380  0.9985637758230704  0.8588315255359719
  0.1852193153586512  0.1725274593559574  0.6662473292143447
  0.9998377102881236  0.1225704067970287  0.4956154152650225
  0.1707835339519953  0.9999850668246404  0.4982560356425603
  0.1633847443157296  0.1813376918387535  0.3396347258313200
  0.9898731993106479  0.1567410543098445  0.1950202545084845
  0.1949116034676803  0.9814404527139321  0.1764246377165159
