Cl O  Li
 1.0000000000000000
    11.7780000000000005    0.0000000000000000    0.0000000000000000
     0.0000000000000000   11.7780000000000005    0.0000000000000000
     0.0000000000000000    0.0000000000000000   11.7780000000000005
 Cl  O   Li 
  27  27  80
Direct
  0.6749001188345803  0.6741742117619581  0.6912833239416267
  0.6677294644832928  0.6626027933508407  0.3708994818477740
  0.6714824619841784  0.6576634113972479  0.9983867707847088
  0.6887462100028420  0.3168415019907385  0.6785253591361623
  0.6511613367781161  0.3202651304391057  0.3299703518208568
  0.6457702591058893  0.3395461449785525  0.9926950414998821
  0.6887105828420998  0.9933456236105690  0.6417147693764250
  0.6637460240290628  0.0142381497710877  0.3392152356647047
  0.6860404890861300  0.0198676396965707  0.9977199365465620
  0.3438712859651306  0.6578608587414962  0.6790405764629829
  0.3313085013209583  0.6615208612557633  0.3288988447188375
  0.3143271592792897  0.6614686350769484  0.9808360413051433
  0.3273432995439035  0.3489076672884205  0.6950039331145649
  0.3368877349358534  0.3317715292818691  0.3438856730401055
  0.3166499489461403  0.3442437075786092  0.9856404335154944
  0.3580795191252522  0.9874059623078908  0.6651054983636863
  0.3373348558031650  0.9948978642752053  0.3417707961959712
  0.3114797596705138  0.0122181656671625  0.0088918319644674
  0.0169920228992374  0.6600351681674138  0.6693444422400100
  0.9948200992707339  0.6651428479701024  0.3160500306534811
  0.9905473953069091  0.6684796554568658  0.0117202413856462
  0.9884811926794523  0.3134604641936220  0.6468379146057082
  0.9948517617079328  0.3554633077773999  0.3027615855216510
  0.9741589956207045  0.3362531831907475  0.9867422882277663
  0.9921219804386141  0.9975601927397743  0.6465192944295273
  0.9854729888179256  0.9916178739494846  0.3203654717118752
  0.0016985893960631  0.0050022929084860  0.0160074097110467
  0.8437645207570023  0.8440876311411810  0.8350324398698269
  0.8436890559528852  0.8306599161991778  0.5001851445916285
  0.8186588702903450  0.8432609190703277  0.1807369810494665
  0.8627222188127157  0.5003628571142860  0.8365890229109710
  0.8316676422103506  0.4948344124461530  0.5030068966932114
  0.7954126337311384  0.4929824883395403  0.1706271264223777
  0.8518492951791902  0.1597527268871415  0.8306342668762325
  0.8559893331990451  0.1684533653652462  0.4639557633769044
  0.8276082511270845  0.1764861970064889  0.1616501547787682
  0.5113908435403636  0.8149747347992523  0.8603797072629705
  0.5038335940096160  0.8209241467598796  0.4983937461728671
  0.4897628493016304  0.8430999490804302  0.1754083318793580
  0.4923641583461224  0.4914706011909634  0.8338739093791544
  0.4945458361166480  0.4933481120766545  0.4991624426512848
  0.4747858386922714  0.5065810112260551  0.1754560439349653
  0.5221502865698441  0.1672355035063153  0.8344884779019531
  0.5005507940597046  0.1591551015084001  0.4982556504395821
  0.4846066679778410  0.1719198678627334  0.1528295681523814
  0.1689296697642724  0.8274944429672549  0.8208429514545049
  0.1818327848857028  0.8351620557254826  0.4980354907803609
  0.1662664484066389  0.8425057852042380  0.1818056744154953
  0.1642302650780638  0.4985591916163145  0.8355300865287363
  0.1640997907231988  0.5040715635767036  0.5081504060836913
  0.1681694246151785  0.5075214063280030  0.1578206600958123
  0.1816430702547519  0.1473870657039379  0.8187632969170130
  0.1739827043849023  0.1908931325585667  0.5041535244733631
  0.1707791141395267  0.1749609699153388  0.1783996571204495
  0.6819253900787946  0.8138550703021167  0.8577397346519916
  0.8181236531710170  0.6592863095398640  0.8192392433961976
  0.8090264196171985  0.8392549687281745  0.6669133743442909
  0.6808881538762843  0.8226619424958883  0.4857175214100596
  0.8397252104370631  0.6532719994671127  0.5129261055249208
  0.8184060793907169  0.8528917503270770  0.3453195448037394
  0.6557245687880116  0.8887964790395403  0.1940989072003269
  0.8159808413940279  0.6779407313897617  0.1686540497265373
  0.8520938270551918  0.8322626526076464  0.0091965631147028
  0.6631299980315065  0.5119485263897002  0.8175730258649524
  0.8583987009150399  0.3319947860749504  0.8088647761297799
  0.8476151690666487  0.4822077823105147  0.6734142380736294
  0.6657060036947896  0.4513213821010155  0.4811854631658134
  0.8580040491390029  0.3209810541856743  0.4893301155092938
  0.8637952441176076  0.5141666410291664  0.3324349213932964
  0.6496570204011969  0.5100792340422258  0.2199313517461200
  0.8410298122867775  0.3490052776117715  0.1334917930682070
  0.8103498066971222  0.4659396514929491  0.9975931866912648
  0.6817262018619191  0.1545032469361590  0.7896622223147852
  0.8441620874825544  0.9994946779837642  0.7905206749470266
  0.8860194669884395  0.1635118984130419  0.6661935842410734
  0.6562068309911457  0.1775394047032179  0.4972021391022786
  0.8460742943645589  0.0054582737547278  0.4988317983083534
  0.8410541035327381  0.1798359598244313  0.3098776655403472
  0.6715419755367814  0.2053557355493039  0.1651799764573923
  0.8096411500816367  0.0096903136034887  0.1669696947316415
  0.8219368929618842  0.1587664516943858  0.9809203458454857
  0.3467086249495380  0.8088965792350350  0.8384168581986730
  0.4939064905229695  0.6576299299632326  0.8309197699870874
  0.5165071062499581  0.6759110358481285  0.5433151829587900
  0.3493530104701997  0.8241840319677685  0.5560187353733030
  0.3400630663650951  0.5149454183746578  0.5517631115080864
  0.5047227750679973  0.0278198140369599  0.1574599249719475
  0.3518578832682288  0.8115877254041707  0.1500187572328334
  0.5119860195518039  0.6892612212301079  0.1661241771878740
  0.5310427044348063  0.8484121206886953  0.0051818761476026
  0.4924437931474627  0.4933670187630938  0.6719692328222636
  0.4715707708331794  0.3371046723324803  0.8419714771908818
  0.5086588071071947  0.3382824738782814  0.4884799219006791
  0.1790121663755982  0.5262674061751716  0.6725095915886533
  0.5087504660752854  0.1582712240387202  0.3122778430682869
  0.4469152371541689  0.5175362821833865  0.3394606987051349
  0.3393999558357854  0.5438621629054557  0.1415623469901558
  0.4653716043786694  0.3233773451142602  0.1429418974550107
  0.5306536801307501  0.5291084698172930  0.9947553873434657
  0.3556137552332196  0.0943410573378618  0.8325403199759271
  0.5308113303170332  0.9204336662371500  0.7275261867978590
  0.4924641977940694  0.1830785375195735  0.6532876857477101
  0.3391889458792093  0.1827282779955291  0.5215770279196263
  0.4987830391203446  0.8495025043560090  0.3342243967550860
  0.5014005018434002  0.9862758335974561  0.4888476103936999
  0.2038191762158771  0.1717957598385806  0.0006784546887471
  0.3417254782678066  0.1454245354573853  0.1823744539396587
  0.5359906288098950  0.1475184813445838  0.9918699361937358
  0.9933961676241155  0.8367819579477634  0.7946828989715256
  0.1543799219286522  0.6680088101393330  0.8617485999436603
  0.1852817369579837  0.7780470207485759  0.6478098883274046
  0.0005410930229514  0.8215166912196742  0.4955630467956891
  0.1582270075222244  0.5294294786326600  0.3324492127430032
  0.1598646322327039  0.6539523972664641  0.4877283507506636
  0.9748393149795744  0.8565759226310746  0.2050968092943189
  0.1403996115051068  0.6839145560525790  0.1803329164156198
  0.1501753704080674  0.8383472858374532  0.9967131893369472
  0.0059999760076571  0.5030881324839960  0.8721580466042611
  0.1658307849103386  0.3240114276046471  0.8234905353225515
  0.3242469956348530  0.4801635929921251  0.8416017644273640
  0.9996916621531339  0.4886148818304461  0.5313264004566626
  0.1881989738988958  0.3480245185561194  0.5058815632255779
  0.1655027113909382  0.3530046288321057  0.1602552603435483
  0.9891299157062067  0.4980328408017621  0.1564871212993474
  0.9957424748860463  0.1661880649805018  0.1744928150618147
  0.1647078815804081  0.4989835191978332  0.0170547773873929
  0.0429557388564035  0.1466528830374891  0.8606660200820242
  0.1891251181365469  0.9789408995740088  0.8081478604906681
  0.1230667144062760  0.1901463994150384  0.6776575138888161
  0.0231039761897352  0.2007968962063863  0.4702831471246757
  0.1729096183518956  0.0220326374782035  0.4983183623395701
  0.1824027789721641  0.1694805409433877  0.3332041441820432
  0.1727357132735240  0.9924290687218115  0.1649073173428391
  0.1969471624909681  0.8257297145552002  0.3278788350582543
