Cl O  Li
 1.0000000000000000
    11.7780000000000005    0.0000000000000000    0.0000000000000000
     0.0000000000000000   11.7780000000000005    0.0000000000000000
     0.0000000000000000    0.0000000000000000   11.7780000000000005
 Cl  O   Li 
  27  27  80
Direct
  0.6668044084111076  0.6457093987339634  0.6800203723413292
  0.6746176471888682  0.6645949113037645  0.3144847719644390
  0.6369073096787568  0.6700292678792107  0.9998661014286409
  0.6672128252265223  0.3444460870145790  0.6618599534634467
  0.6759606696926100  0.3329421780245265  0.3381454981505503
  0.6630509250853028  0.3569457144192543  0.9896266088815824
  0.6693076617927394  0.0111880642157081  0.6843628374108544
  0.6661974916307865  0.9765491244965235  0.3271957534516748
  0.6753592589280399  0.9810172044065525  0.0060786560602946
  0.3279483895401753  0.6762436568478561  0.6514967816264006
  0.3360015853426149  0.6962864043752118  0.3268997646196471
  0.3014578951413143  0.6716430163191816  0.9969352609155525
  0.3414766095123398  0.3239829997185829  0.6407237759845923
  0.3306409526986585  0.3510273952534566  0.3198659711966418
  0.3187814401104503  0.3220660762863211  0.0102264280586161
  0.3449624842784805  0.0054208783503632  0.6516813546102899
  0.3438038728169882  0.0230706458965643  0.3438364107687485
  0.3249521048363669  0.9932951375019361  0.0111548268275329
  0.0133428996937949  0.6680483167711382  0.6566647037190709
  0.0222187830643063  0.6403180376638670  0.3488564801443397
  0.9783724970672969  0.6699676895707012  0.9950250409815574
  0.0216598921015194  0.3312284508647235  0.6746955287997546
  0.0020339752382684  0.3213879051845160  0.3511572659908911
  0.9880892813796741  0.3213641200061797  0.9828034838195068
  0.9839899539698461  0.0139539818763156  0.6742643186985471
  0.9903852532579507  0.9964701912265690  0.3337151999841733
  0.9872948032861431  0.0236776360566910  0.9959119292373090
  0.8405877471551054  0.8358891665596075  0.8456408403073762
  0.8587378422534548  0.8259270027079582  0.5149630969128747
  0.8243998989054391  0.8148712469631705  0.1723717726651979
  0.8452315856161797  0.5118870624091301  0.8418097869361378
  0.8415040129527328  0.5130967664579591  0.5049073307934578
  0.8486982702980116  0.4854569317564806  0.1707810806661845
  0.8100489546753000  0.1860198763938109  0.8337000735014304
  0.8386143263332806  0.1879463746255222  0.5126987074498538
  0.8269096704380703  0.1723602002955906  0.1691180209969140
  0.4903954693766575  0.8485463631797463  0.8261018527358296
  0.5144867174120074  0.8315185236447683  0.4985317694078650
  0.4883690126678191  0.8437135388250999  0.1568306990819328
  0.4898739768112971  0.4831541216394324  0.8272194119916488
  0.5135966456746075  0.4937292750828930  0.4760297761394758
  0.4918028231967845  0.4924995307561467  0.1581182565740651
  0.4927068219152017  0.1538430037426643  0.8405934432800797
  0.5160471870525051  0.1655715561510883  0.4976283374851869
  0.5069010066380762  0.1654556767865046  0.1733245563025856
  0.1672198040205158  0.8207999303939113  0.8469171023701368
  0.1704242140954426  0.8350004308407355  0.4985303929039273
  0.1442856087583758  0.8272367866901442  0.1593884761893931
  0.1576482332825575  0.5113610759632669  0.8177327087942650
  0.1889879486270881  0.4851826431041775  0.5096256219234006
  0.1506129925061470  0.4941381372378170  0.1605826945689225
  0.1973764243518964  0.1752262636783461  0.8423073526242272
  0.1585748127383655  0.1464345785788342  0.4977437613889089
  0.1731271212761639  0.1602594452709379  0.1792479968727401
  0.6778367635889534  0.8339228711699312  0.8523427950678574
  0.8131902986029020  0.6845764044058901  0.8529257849709075
  0.8489651501202969  0.8170804548124512  0.6762205737065600
  0.6630678884720652  0.8073490577974258  0.5096119783402528
  0.8718000549145736  0.6652332447621946  0.4903182918674965
  0.8187947748708913  0.8184360682786828  0.3300850554597325
  0.6657665649274485  0.8446838931303992  0.1717039051002210
  0.8567006164255739  0.6421968440826760  0.1561628720023659
  0.8295996830157276  0.8312262189850446  0.9934662312428669
  0.6670050136173309  0.4879403068018346  0.8464857708126996
  0.8476480787643226  0.3455961965399852  0.8334893874281336
  0.8285881955339356  0.5377832714755693  0.6550139920998302
  0.6792044417073453  0.5217693890323895  0.5106975136368143
  0.8441146741269194  0.3545996253989865  0.5455484071286942
  0.8601778273139890  0.4827812914993498  0.3423507986512189
  0.7111191308437591  0.4512129955303317  0.1657015787088102
  0.8524488386743012  0.3330029061394275  0.1550772456136321
  0.8951002180398125  0.5021018602843024  0.9758999800366835
  0.6516884518748550  0.1855942532791744  0.8374472411032854
  0.8375191150237451  0.0194482404112664  0.8106660614610980
  0.8418173700256223  0.2224362394743155  0.6688418243482116
  0.6704740869383490  0.1897116599548762  0.4906174385614993
  0.8394470302448039  0.0005502501116065  0.5245892318620715
  0.8652210138586525  0.1809642608282977  0.3550267805015668
  0.6761939061392401  0.1658934455241214  0.1913105842771774
  0.8275415667163206  0.9880226137616869  0.1548750513550691
  0.8376706923985380  0.1755568472931625  0.9821387880333645
  0.3305501844095864  0.8589069034651466  0.8426210335803963
  0.4801781664716037  0.6711163011359397  0.8452344477624583
  0.5062408515436918  0.8352222908871740  0.6680166912083458
  0.3512716495917814  0.8418576876337235  0.5015277302283938
  0.4634070044356078  0.6921042615290255  0.4769942195749244
  0.4920740754433427  0.8276167017769654  0.3258443504680766
  0.3496121931239951  0.8536946498485984  0.1727411008173212
  0.4883022927122477  0.6660608070266564  0.1462039975902737
  0.5152460212753203  0.8752192848357699  0.0014517582129398
  0.3478179607265383  0.4871249306457630  0.8075060942449263
  0.4796606414764170  0.3111109470279245  0.8601168034833916
  0.4763825783194677  0.5430434598174791  0.6706788093385587
  0.3672326176041774  0.4695019150993450  0.5075571008736407
  0.5411923917646678  0.3457519439120014  0.5311587588466582
  0.4941978185922526  0.5287433247768073  0.3185979479148027
  0.3305460751404781  0.4796185712753027  0.1292998409826443
  0.4989953801548462  0.3288859852886449  0.1568956073154096
  0.4840913647395982  0.4822323498260542  0.9996269425674928
  0.3351010886121570  0.1578763930714005  0.8483391119086601
  0.5003497790587798  0.9973353720278738  0.8226640746366907
  0.5409311798997735  0.1595971444498270  0.6682256364090154
  0.3449126062534418  0.1900304218299918  0.4875124910174278
  0.5240504238590861  0.0240674144015073  0.4706633135964890
  0.5083520847009321  0.2183574761223957  0.3297590062108288
  0.3360387914343442  0.1889485302203245  0.1792855268477489
  0.5211791581011540  0.9979685701650876  0.1815930940004643
  0.4725803910455122  0.1493614814113682  0.0187946982237724
  0.0212189920704780  0.8459758635322142  0.8464736251897194
  0.1748832771455778  0.6604583955145739  0.8209026354212803
  0.1757905349394946  0.8368616261062234  0.6780813641179484
  0.0206224129865497  0.7973724811398401  0.4689202952425988
  0.1748562126490369  0.6598935025897642  0.4888123155887702
  0.1892328651144841  0.8328043402642734  0.3185545880407633
  0.9878942745465435  0.8400737385303901  0.1698217788777975
  0.1344189499887607  0.6490850317288536  0.1339301876808580
  0.1764632202682537  0.8510517622881044  0.9952746294220012
  0.9991862971341532  0.5294973655368288  0.8155081974600290
  0.1504779028145496  0.3444522812822989  0.8346200639567717
  0.1694375542912926  0.4765578742842891  0.6562186354724175
  0.0288016626431570  0.4877468270277599  0.5108350830597702
  0.1710637216307607  0.2921700706600384  0.5241907744575006
  0.1849648527138276  0.5032490953456031  0.3387593784213801
  0.9972180350391723  0.4787623048551977  0.1815667784840072
  0.1550778044844928  0.3291947877529168  0.1800329887286561
  0.1631953316033176  0.5179107650969860  0.9677916380452377
  0.0732205818692879  0.0854960610023468  0.8318288378542792
  0.1790149346855764  0.1445019771715754  0.0125601611949271
  0.1893461432914795  0.1733584895337441  0.6845579770867364
  0.0209101061050481  0.1591462888034490  0.5227756474386663
  0.1468262909014914  0.9823300349158360  0.5037033351874293
  0.1578373406323595  0.1494722798570051  0.3305806980908500
  0.9800523556513518  0.1779972065904616  0.1537517330496867
  0.1403776735936727  0.0030956146454149  0.1884219907637936
