Cl O  Li
 1.0000000000000000
    11.7780000000000005    0.0000000000000000    0.0000000000000000
     0.0000000000000000   11.7780000000000005    0.0000000000000000
     0.0000000000000000    0.0000000000000000   11.7780000000000005
 Cl  O   Li 
  27  27  80
Direct
  0.6577761906261239  0.6802086790646206  0.6851071535572522
  0.6788941091850981  0.6745640817553868  0.3005350300315067
  0.6790577916974615  0.6710042401452967  0.9722738809986731
  0.6414405706301983  0.3407887186760120  0.6810790981812748
  0.6591928965759457  0.3107199618055407  0.3334829878002570
  0.6612493124881353  0.3474041966008739  0.9875652064139004
  0.6773838009675087  0.0031012855431522  0.6568487017919816
  0.6435213992445782  0.9840860213463120  0.3240535512152247
  0.6675572227537284  0.0069899436431737  0.0102806855747169
  0.3320076675548141  0.6575718288957410  0.7022464899111883
  0.3431273092764777  0.6356577242650041  0.3192873456026250
  0.3294010954070308  0.6557339127409655  0.0104191988137919
  0.3501565885762754  0.3361205484835674  0.6493846901603121
  0.3480092424333740  0.3345953821205322  0.3282957541670482
  0.3151115473010567  0.3338092971585480  0.0129627111400957
  0.3690153807755203  0.9939229771093105  0.6513595279714848
  0.3173338926658610  0.9793801845406001  0.3712419482876993
  0.3167064295399982  0.9932682818520063  0.0181003438202901
  0.9868220686026217  0.6533618725729300  0.6777817234837870
  0.9917414191344803  0.6773199236095970  0.3202050891177147
  0.9982031937260892  0.7006244996445185  0.9770820978150937
  0.0030843682559876  0.3226954043650950  0.6812529425315316
  0.0171194415223141  0.3442113552318358  0.3379035289828400
  0.0031232968753927  0.3322787462359916  0.9895611143506055
  0.9973264798017757  0.9877168326148474  0.6395088007172322
  0.9986901824426873  0.0011089713191633  0.3299789958131709
  0.0077653786492264  0.0122050034046978  0.0015969946687613
  0.8225178013133227  0.8332851476167044  0.8260783225974184
  0.8283428420946326  0.8399241070793282  0.4864694977714677
  0.8302688140160146  0.8509495797374852  0.1525702695803996
  0.8190232626694561  0.5134789108663808  0.8379728550652196
  0.8326441739876648  0.4963677523577588  0.5217767023187142
  0.8295833150550116  0.5114833040399120  0.1596716432739373
  0.8315283960898826  0.1451574487038143  0.8165361543884248
  0.8310713967825472  0.1699761790702690  0.4865251247247170
  0.8127193604594466  0.1753845237698326  0.1711646313246602
  0.4867671550832661  0.8570275733600626  0.8455203071267631
  0.5133113736211097  0.8105964761231095  0.4974939987797862
  0.4970264008730115  0.8215968478271074  0.1552672456485656
  0.4957414749325250  0.5013196038176110  0.8265494108274110
  0.5198067313346971  0.5085736985987724  0.4922182235550517
  0.5059147701969803  0.4943373280787467  0.1666654269905754
  0.4872488909760713  0.1737188527916214  0.8454499434842977
  0.5032989268903221  0.1676798364974578  0.5009937195561244
  0.4978769588503157  0.1765202407320072  0.1720851076049205
  0.1671957640746173  0.8311250080842637  0.8496844744509389
  0.1806042180828444  0.8350354128589730  0.5137108345829654
  0.1623840629826041  0.8117268287684679  0.1909959842840454
  0.1517375438827822  0.4925642290652755  0.8500864945715839
  0.1792608514531180  0.4978822710579813  0.5021869055577004
  0.1670552594594412  0.4981516204902725  0.1682362811387211
  0.1847505718266490  0.1786672832343343  0.8025375951663516
  0.1776427913169892  0.1737426177272526  0.5002702452806032
  0.1938586149849200  0.1632774428998777  0.1918870074285788
  0.6619386980484923  0.8291512633791596  0.8619501771570153
  0.8492550138003220  0.6760066983675665  0.8329161463936381
  0.8106022974031759  0.8383385364846713  0.6515235748525375
  0.6852521808735993  0.8195882856694596  0.5119298409145570
  0.8470343080946200  0.6514336334685916  0.4977445224964581
  0.8074998194691104  0.8643591572158380  0.3252328709638984
  0.6653099181336998  0.8318637858447401  0.1517555007054770
  0.8620979574812377  0.6873005892935861  0.1347088860616423
  0.8519791960639637  0.8661113657577832  0.9838687037722397
  0.6621164694835125  0.5077832209698103  0.8144048404678573
  0.8040537013755249  0.3235629257291617  0.8335435892767958
  0.8525689875158827  0.4774115927476226  0.6724502403349831
  0.6823331828173550  0.5229951279276068  0.5200412952218916
  0.7679993385879456  0.3474999445953678  0.5032318339880981
  0.8212763567031055  0.5065667558575222  0.3312798325197615
  0.6769127127375163  0.5396143077347103  0.1602571837578134
  0.7786419812097665  0.3415485083642441  0.1597662273128957
  0.8081647518418671  0.4983699583060466  0.9964743744846384
  0.6823756115269659  0.1428345780661437  0.8141446002528013
  0.8128276994164301  0.9922043885373928  0.8192437376339935
  0.8437732892952527  0.1509197370997262  0.6558411009095433
  0.6739357395742465  0.1702819046433859  0.4777102769051884
  0.8169096003876197  0.9987791075385845  0.5133649272404889
  0.8582596167362114  0.1766597939400499  0.3288128945508407
  0.6716434556637810  0.1507473603455796  0.1641657160823130
  0.8643356670591120  0.0147287386082489  0.1511933304244854
  0.8336176051841186  0.1550266985396651  0.9907524721828891
  0.3263821996017742  0.8220998385601279  0.8678090637410298
  0.5107718453121770  0.6491475438258462  0.8459112342450862
  0.5099461453765722  0.8368674586293080  0.6922864313008555
  0.3610615361690588  0.8388055761736704  0.5173856547572683
  0.5415082875632804  0.6772218679467368  0.4434332236137135
  0.5113659282175491  0.8159076760815364  0.3276384937794741
  0.3433734605688766  0.8417431975184845  0.1633172228609154
  0.4744297932016064  0.6631670744902651  0.1627457814210489
  0.4828108803391018  0.7897463280654391  0.9936946841936388
  0.3258301000665037  0.5053486713288369  0.8403911295713998
  0.4995446338563188  0.3283978350824195  0.8274549884768155
  0.5169732789496436  0.5417300752578633  0.6590871805926447
  0.3608382996186826  0.5129457180175495  0.4890563130392031
  0.5399093972687555  0.3352848688944140  0.5107090843488160
  0.5140005162690068  0.4850591247425231  0.3341874744185193
  0.3436247130229273  0.5014562420761384  0.1912229050067257
  0.4800394516020671  0.3384447146543558  0.1702812801653094
  0.5130669632013377  0.4842935051552604  0.0131397993838235
  0.3293304888521059  0.2044574812548612  0.8690028975091648
  0.4470531541501091  0.9994561243713044  0.8522448527459873
  0.4768945044729808  0.1682716420985211  0.6839224694917623
  0.3408407742942229  0.1730356412562794  0.4834581524951638
  0.5113439446399549  0.9842185743739432  0.4938686517764228
  0.5078281511558731  0.1778473524696451  0.3269120843117325
  0.3376557466093021  0.1447492343154493  0.1659735009707452
  0.5070715193296158  0.9942755949084835  0.1554545615189779
  0.5165118262472153  0.1677876491441121  0.0033917306035042
  0.9921137507979532  0.8433083634665345  0.8164181799038770
  0.1517390216002447  0.6477964647255273  0.8438023492416220
  0.1571156965878874  0.8075612039695345  0.6904859641502689
  0.0168239005601337  0.8364203377619964  0.4738565921897969
  0.1602012111351905  0.6773385468981665  0.5372274327097115
  0.1806041978401394  0.7720033542493864  0.3678472466647300
  0.9882660642490771  0.8553500199140359  0.1797781654432918
  0.1911351007305422  0.6560762168819577  0.1577048519379892
  0.1417211295818211  0.8616625050309514  0.0254981111999549
  0.9966241582040681  0.4711864346599347  0.8240549427797350
  0.1729386498378183  0.3236346253901549  0.8465222400518109
  0.1804563046376503  0.4667069264777828  0.6959938422301555
  0.0010278546885611  0.4720481261249708  0.4981783236639013
  0.1809060570566076  0.3361614387476008  0.4695021029535214
  0.1636189590777647  0.5213904077340512  0.3374178457625663
  0.0035039884597246  0.4637722200824841  0.1506075267854448
  0.1800245682261137  0.3418702864023998  0.1924167185321558
  0.1916993863742029  0.5072566272427983  0.0007584754076517
  0.9926179624191169  0.1912199870114330  0.8147228938482990
  0.1456065953440109  0.0191985783684409  0.8259646395663238
  0.2168014943674909  0.1902354020845421  0.6590655613837398
  0.0064379050732373  0.2277041226681672  0.5104635403375659
  0.1694477650021982  0.9932301477587712  0.5130162668901370
  0.1759056838329493  0.1847855193543862  0.3335715293917829
  0.0944426018654810  0.1874919285230669  0.0919773152204041
  0.1565357127265249  0.9863611862542205  0.2364263834009541
