Cl O  Li
 1.0000000000000000
    11.7780000000000005    0.0000000000000000    0.0000000000000000
     0.0000000000000000   11.7780000000000005    0.0000000000000000
     0.0000000000000000    0.0000000000000000   11.7780000000000005
 Cl  O   Li 
  27  27  80
Direct
  0.6626927909938090  0.6576505604205519  0.6589201792753303
  0.6783282158249252  0.6779923736710906  0.3242790559472209
  0.6511971612700879  0.6709383577858231  0.9884320721538882
  0.6553535553955561  0.3110367677834687  0.6737941545164072
  0.6554794245350412  0.3317923621662381  0.3108226773349844
  0.6952362185464984  0.3318072405543889  0.0193434569219926
  0.6666466770987871  0.0053080608428017  0.6700156512072631
  0.6848353547928038  0.9941745566637429  0.3288644132336452
  0.6749841209643735  0.9973871346701239  0.0013729407108126
  0.3394430272161354  0.6331509360551973  0.6556071367241979
  0.3244187094052685  0.6578786552201202  0.3435134515371288
  0.3265856302438730  0.6526159567827943  0.9811067357029333
  0.3307217614216694  0.3155177739257881  0.6690407625360516
  0.3175108458498629  0.3313271240779811  0.2958133796112028
  0.3256930281683523  0.3373037219913789  0.0020837903387181
  0.3586963902205973  0.9976912061928405  0.6650274843347000
  0.3238349097940196  0.0006788762814431  0.3354863688240967
  0.3131538465181715  0.9811267492175464  0.9993255644315600
  0.0218293107351852  0.6719428008062867  0.6613757003586496
  0.9977794294581661  0.6644172513515173  0.3499986474128228
  0.0145371444866571  0.6971790167199811  0.9828405031406537
  0.9987553078078755  0.3215325090953437  0.6502097838134314
  0.9721201250379015  0.3816011976393983  0.3283790336539461
  0.9922945127734115  0.3464736268560290  0.0265672711468615
  0.0251983446082563  0.9917712579637312  0.7027061217688332
  0.9945966985295285  0.9743571155033464  0.3257168345529134
  0.9987830088425997  0.0123144747421701  0.0011789232398871
  0.8487562452498196  0.8367550585338203  0.8396690732838897
  0.8342598774271974  0.8518408939250822  0.5090527462562580
  0.8385286590506427  0.8486252187848411  0.1654114835087044
  0.8279391332866554  0.5083949024309928  0.8406758644581293
  0.8314090568012821  0.4994238618999388  0.5154271740503725
  0.8260949418933400  0.5179445199554144  0.1804411352723302
  0.8348840005067406  0.1718031920522615  0.8500325285188052
  0.8299695575656674  0.1814748933303391  0.4947096966810560
  0.8205314368602044  0.1606416074459062  0.1663808864068700
  0.5082147985206282  0.8366140073656101  0.8410421764472125
  0.5073899082932223  0.8248989872054565  0.5135783268349148
  0.4831287025069692  0.8174201983991611  0.1848793280936444
  0.5139865605024647  0.5062525359935133  0.8366418982123015
  0.5113198675209295  0.4857788212774095  0.4814180936872511
  0.5043126527695457  0.5236185906430800  0.1514386730073492
  0.4960080830568257  0.1816547700066760  0.8653633816109879
  0.4970754808897367  0.1589194087140746  0.4929941274351010
  0.4871101186907026  0.1438121059341952  0.1693377079573452
  0.1719133078030090  0.8345643120314695  0.8208912923899228
  0.1610833391894235  0.8385072670757657  0.5017371541374067
  0.1641455037765470  0.8373501940598507  0.1618097394993324
  0.1601876399800428  0.4980203137083454  0.8399435643632424
  0.1707321459681834  0.4819097116208332  0.4844257143058410
  0.1692317263119704  0.5127259506149165  0.1516260394845239
  0.1861226543119038  0.1681232201095444  0.8427198918348791
  0.1563346941233826  0.1680754776898798  0.4871913941146651
  0.1586243566035547  0.1578823142104992  0.1593388137175331
  0.6781701607845428  0.8291648538793864  0.8393456758293366
  0.8519275483807730  0.6880207311679821  0.8190020812207609
  0.8497316197459507  0.8416503923614047  0.6608508475042648
  0.6819950603734712  0.8423922470130361  0.4899711628461461
  0.8472369087858149  0.6624223732624276  0.5091466319218950
  0.8307910875040491  0.8346392910106674  0.3238814487362587
  0.6615489162215324  0.8334388176353034  0.1836782069517212
  0.8080515663355768  0.6691856229335486  0.1503243120989148
  0.8298056726262544  0.8579075516328781  0.0066692747746331
  0.6702033608469025  0.4925544594839705  0.8023569097804795
  0.8312876005714801  0.3604345346468636  0.8523236788377924
  0.8432137926298495  0.5271060038547982  0.6826441436717585
  0.6796124130280330  0.4594788107322882  0.5076381455477527
  0.8886549406230958  0.3385797816270899  0.4950049972611149
  0.7919101953365146  0.4731156733020107  0.3487676480383684
  0.6683271050089192  0.5012312115702141  0.1984187827670656
  0.8641565713054490  0.3452276883653089  0.1528800750572308
  0.8216967688997457  0.5303779132294376  0.0193924594500416
  0.6721383610146999  0.1850481153684125  0.8737095298397102
  0.8528834898801354  0.0037685806733090  0.8382422054961742
  0.8417579372886216  0.2149033117014817  0.6948611829150944
  0.6510784985335712  0.1950222831441073  0.4706751687050236
  0.8044415633025782  0.0395839261405289  0.5000230423662093
  0.8384481740556939  0.1813307855136789  0.3190053859638028
  0.6674065882432491  0.1854788801301107  0.1768027924523778
  0.8213084328476584  0.0016713276341865  0.2038533012841515
  0.8186509705395880  0.1506591300398224  0.0019345823092830
  0.3337504749388349  0.8377469510772044  0.8440962338309969
  0.5246850729899944  0.6693962280360256  0.8367816538473938
  0.5152853324531488  0.8589491602596613  0.6770084936381202
  0.3259590173116189  0.8299684082957572  0.4940045218108249
  0.4917416091017467  0.6694966723380719  0.5241171243802547
  0.4697998934214347  0.8182044817604035  0.3530102356015863
  0.3206873311132877  0.8222583668279186  0.1308904347729094
  0.4942954287603860  0.6707697360534477  0.1985962708042164
  0.5171072163855905  0.8584435784604050  0.9966694854277109
  0.3426867182600507  0.5128842080823488  0.8082634072065766
  0.4731616399207177  0.3374986389975063  0.8419393331313509
  0.5250576197322075  0.4584489023889761  0.6613557815369621
  0.3449052782390262  0.5055746078041677  0.5057610395161609
  0.4734359285730209  0.3219946905351508  0.4774878915470843
  0.4915805176556192  0.4859299937981033  0.3133056880116490
  0.3429934762111209  0.5148918390755679  0.1734631914723288
  0.3483918817425457  0.2052044244706333  0.1571887348094611
  0.5259205662449515  0.5116683097657997  0.9919781069740217
  0.3403949606599145  0.1687159062682738  0.8628597638606669
  0.5414499597874508  0.0090914603562095  0.8447797894923230
  0.5022218647443221  0.1838729858596670  0.6460140378695073
  0.3363028168800115  0.1259607121903392  0.4601973421870444
  0.5024670443868826  0.9947728500517482  0.5188319565404154
  0.5198370261212130  0.1407402349700400  0.3317219746803147
  0.1506211501610313  0.3323163850697194  0.1537280622110043
  0.4578781952435679  0.9728245883867175  0.1704202675762764
  0.5137883439354277  0.1778300728447973  0.0170786107329410
  0.0178761166776831  0.8465805436415323  0.8393591169854345
  0.1807776895215919  0.6788755224033916  0.8150241467822819
  0.1651351595010322  0.8423506280116239  0.6634638568322275
  0.0019161369204694  0.8438889116474778  0.5280157479006731
  0.1798047643927621  0.6455228724769405  0.4924899626251925
  0.1682818576240979  0.8516214630032397  0.3195863920817663
  0.9967795307668217  0.8480326743250467  0.1515328623135608
  0.1519590107750065  0.6555721609307680  0.1818648654407756
  0.1558225638090695  0.8266578353546311  0.0138602837983494
  0.0029991341297494  0.5234860414109561  0.8330432310940845
  0.2010892196854999  0.3158351795396709  0.8378305498479649
  0.1310341873787128  0.4905073957014756  0.6685216181244673
  0.9849465949524816  0.4923686314523733  0.4738015735163601
  0.1561525300213844  0.3316513717261428  0.4763394419234853
  0.1915045215533706  0.4984641957428623  0.3210702633266687
  0.0098130411700506  0.5352022356479976  0.1869998324097596
  0.1479015731127696  0.1656705431262729  0.0170188567982165
  0.1782454688291525  0.5121394789666120  0.0024446696918558
  0.0045750612895353  0.1535400009612613  0.8372997051529100
  0.1891888370759633  0.9887910409069905  0.8472668891953912
  0.1816967285697997  0.1943740510029484  0.6598574974861231
  0.9979353977603297  0.1609281834201243  0.5019163020763648
  0.1646254886753725  0.9926231994034030  0.5176581630501977
  0.1772041436002390  0.1765841545967822  0.3152111540728995
  0.9938957252857470  0.1265514955348017  0.1600196973418038
  0.1620541995623467  0.9895349666403738  0.1834917311535650
