Cl O  Li
 1.0000000000000000
    11.7780000000000005    0.0000000000000000    0.0000000000000000
     0.0000000000000000   11.7780000000000005    0.0000000000000000
     0.0000000000000000    0.0000000000000000   11.7780000000000005
 Cl  O   Li 
  27  27  80
Direct
  0.6773128798979983  0.6838180220805921  0.6790181415363264
  0.6800440661375585  0.6583035499444209  0.3341190679515895
  0.6665621412316537  0.6585072320417991  0.0205052264709645
  0.6784451758430335  0.3381585515264741  0.6673703676420731
  0.6703005639849630  0.3264590170356202  0.3589910163894025
  0.6615531243729744  0.3451511712875766  0.0061531518122699
  0.7032542706819239  0.9887987132392160  0.7027793120244840
  0.6681159307795121  0.0019128402149760  0.3090965137888219
  0.6574516689487867  0.0020904938311276  0.0195649148701746
  0.3284358313893725  0.6644413405174712  0.6541768607965384
  0.3333848893559394  0.6850400336940411  0.3286295702478132
  0.3353912045733357  0.6684921082084215  0.0139180630296752
  0.3513438325912852  0.3214896961213814  0.6723503159764197
  0.3613997201669319  0.3392911511120839  0.3365935362067580
  0.3245859725452198  0.3481559984128811  0.9801161616912151
  0.3166607106381718  0.9870450446921749  0.6728331044898832
  0.3396073349211616  0.9958334261238360  0.3247873226607281
  0.3236635327225776  0.0054960944111142  0.9929876134265698
  0.9856488525420062  0.6376276510911065  0.6487861070075911
  0.9876363268617545  0.6674336576511058  0.3186809082803768
  0.9973984162456014  0.6691474050536139  0.9896981485660479
  0.0014633411783381  0.3293534202053297  0.6549742209451894
  0.0060802619024823  0.3165893825883751  0.3234141182838803
  0.0214250135093784  0.3383449261111055  0.9977972168682808
  0.0131145443133296  0.9855392796966816  0.6521683796097107
  0.9786642931729878  0.0115262368094879  0.3338293543581016
  0.9839465966700742  0.9959610538483149  0.9990345746661408
  0.8312922135770213  0.8220546445921735  0.8440926637494127
  0.8327457207644732  0.8224094587248354  0.4900617618280688
  0.8256448227745024  0.8300017686205858  0.1633823575186530
  0.8383360271389854  0.5055556204939516  0.8349473335285925
  0.8319164985982044  0.5024100255983066  0.4917869666015881
  0.8545418509106626  0.5025899022746434  0.1638508040756473
  0.8230824202089571  0.1896950917957995  0.8631433163063349
  0.8289106188522416  0.1634198482002053  0.5005624221172509
  0.8206640647319570  0.1833048746918106  0.1591148613069732
  0.4661543418673230  0.8093482177135551  0.8436712916028194
  0.5198503434898901  0.8350750763102405  0.5028681471838143
  0.4939583449060840  0.8375367511758697  0.1733855735759756
  0.4942837666311339  0.4941748478782135  0.8536692445568503
  0.5193236283066484  0.4858866747565168  0.5177515960108158
  0.5005312321796953  0.5045768857087962  0.1801057467709269
  0.4996510388823194  0.2003464792661659  0.8348725164910344
  0.5069785337116912  0.1731255673439799  0.4912785913090463
  0.4904897978953951  0.1622236966423515  0.1613447976861402
  0.1557451128886745  0.8228089687500647  0.8478089004980781
  0.1636288165224252  0.8531182899263638  0.4717903319561471
  0.1677900486543806  0.8384470251328267  0.1582340101216858
  0.1630806339505658  0.5183496982850772  0.8107011073440152
  0.1869540603591181  0.4954721623541398  0.4928851333460489
  0.1620296529513831  0.4977211673613858  0.1788290596113619
  0.1525273426284695  0.1545494442768947  0.8236807297688685
  0.1625967725737391  0.1693757378264218  0.4893369920194296
  0.1544017968657105  0.1564145767484984  0.1644704535173928
  0.6617144182461517  0.8290819401068846  0.8487481620085479
  0.7899840591423017  0.6653578492275578  0.8250216065458837
  0.8303476079924405  0.8228753648223563  0.6675818634235687
  0.6749654953446128  0.8570100714125034  0.5117688645578130
  0.8490714623203749  0.6704543550571046  0.4863041085050409
  0.7918973186449646  0.8142030661312056  0.3295752284530524
  0.6681824887934438  0.8204519081837047  0.1588074353466391
  0.8696646899666041  0.6828761695038865  0.1560618565438472
  0.8263486211407955  0.8474391585624564  0.9930284442276573
  0.6606279112997520  0.5349279068573276  0.8731440222682415
  0.8441391248281109  0.3379593430668936  0.8246306794275609
  0.8317204682433036  0.4912075102425080  0.6780894872032595
  0.6961985544094392  0.5001195635312882  0.4793938563104493
  0.8134438967243204  0.3123575641441997  0.5124592622534182
  0.8489144599006508  0.5052383363362987  0.3409116493022079
  0.6822178087677372  0.4944599461349690  0.1540768467734288
  0.8609011371614619  0.3415062293458050  0.1864254585335156
  0.8476120442630728  0.4938085358891303  0.0066719445068553
  0.8290016300537731  0.1436989698031775  0.6848410365909094
  0.8369492399071049  0.0300193167097841  0.8422016712222136
  0.8472428982952942  0.0049664367609300  0.4897238705967594
  0.6697776544302548  0.1811335611862281  0.4637938966984351
  0.9980104839188397  0.2028357044532554  0.5219291640056796
  0.8240263780269790  0.1559251182637484  0.3205466783971870
  0.6509882947090471  0.1720031093535587  0.1431098552899215
  0.7858609440237990  0.0115290859702120  0.1742824063768344
  0.0027021761344559  0.1765836893616109  0.9009892903039903
  0.3112507465222109  0.8359542574723681  0.8235484234492041
  0.4975007777899027  0.6443789170808873  0.8344572981267511
  0.4853694056739875  0.8496634269842326  0.6894453612918879
  0.3492611416480483  0.8413530678578922  0.5089810797151649
  0.4948713313855066  0.6824533398825354  0.5241074814871807
  0.4884187262648094  0.8129779776266014  0.3380260921945691
  0.3379309150666128  0.8729880432970717  0.1827250718228394
  0.4648831404808041  0.6839202072552656  0.1729748086067847
  0.4965413545452858  0.8374632296714296  0.0048811723467788
  0.3170914956425750  0.5172040826401737  0.8589281373656426
  0.4563151322056434  0.3448875302980861  0.8425048259717997
  0.4866308905621221  0.4819395902004074  0.6851351226086705
  0.3515350856678137  0.4751903889665335  0.4841872073904098
  0.5196930981577065  0.3247467878359849  0.4860451638231028
  0.5195561765013095  0.5071670612655563  0.3363862509078958
  0.3414266480300725  0.4646999714860647  0.1524594344038589
  0.5155843553597305  0.3228029820915267  0.1895189082211657
  0.5307756957292803  0.5120718281936554  0.0028116043696214
  0.3777942869197214  0.0942958082589088  0.8216775116853322
  0.6475116101309614  0.1908369018121692  0.8544956327444240
  0.5384673973064188  0.2107854600333135  0.6948519448761195
  0.3266079151308505  0.1888120442770231  0.4816319707424228
  0.5033304743933549  0.0018236573408828  0.4920714980626045
  0.4820142987819336  0.1548173058703707  0.3147663537511494
  0.1277364156172870  0.3188625168999417  0.1663978829135326
  0.5016690746258915  0.9914734223319182  0.1419260112966877
  0.5120379144203284  0.1965897571075665  0.9955958894407853
  0.0107279673527897  0.8405316998611504  0.8795373162633854
  0.1436961893100899  0.6671408266810530  0.8024333388689253
  0.1512318601173426  0.8374525415232070  0.6662260070448776
  0.0052084067017992  0.8077490440211605  0.4950897663440070
  0.2082108438741660  0.6796634093131608  0.4923489040914726
  0.1710838808784992  0.8663770997381223  0.3206594707492632
  0.9889534222559407  0.8451580486251329  0.1710362457229131
  0.1825538630950270  0.6968018549880785  0.1922289408340354
  0.1910144028495179  0.7824242865159404  0.9867339877698531
  0.9799850917170141  0.5563387373571745  0.8425823960172333
  0.1356253722329766  0.3513103786424819  0.8318944097362866
  0.1280034168958019  0.5099086927408795  0.6448240833352161
  0.9754413736747067  0.4896802386381562  0.5068641786005339
  0.1586705886105083  0.3505722486485644  0.4855075175791786
  0.1338088526173511  0.4909599419607613  0.3298695978686829
  0.0086593450895050  0.5331331886349515  0.1880049360739773
  0.3178449088787424  0.1606571238263064  0.1762854220333210
  0.1589944921326855  0.4889572906729640  0.0339131566992006
  0.1484004724881955  0.9972362610763714  0.8423334917169588
  0.1920297566879586  0.1814316755022774  0.9868241384135110
  0.1781623701940718  0.1332990675779688  0.6787014646598224
  0.1678086719429503  0.1513550847049840  0.3385615927117666
  0.1144515230801785  0.0288107715558143  0.4875054725594236
  0.1349284260223146  0.9937795946357446  0.1092172514511802
  0.8189688092833489  0.2211480245892106  0.0110428448835983
  0.9890787271300248  0.1319617636383801  0.1870247842994742
