Cl O  Li
 1.0000000000000000
    11.7780000000000005    0.0000000000000000    0.0000000000000000
     0.0000000000000000   11.7780000000000005    0.0000000000000000
     0.0000000000000000    0.0000000000000000   11.7780000000000005
 Cl  O   Li 
  27  27  80
Direct
  0.6627966903759145  0.6700098332775521  0.6837703219210883
  0.6852018020583314  0.6912772239700028  0.3189585197029989
  0.6654082017437096  0.6729186290104930  0.0022198724265837
  0.6749728798406266  0.3090072223093365  0.6839857043019374
  0.6645417330003013  0.3421243281207912  0.3307764740179098
  0.6695737860572329  0.3075281890709212  0.9842480145036151
  0.6450754572249964  0.0130772876968395  0.6714370895512419
  0.6674504072770125  0.0030458533087929  0.3366459677793270
  0.6751214612950845  0.0031048886274911  0.9699876209534697
  0.3359023490251588  0.6671603891555745  0.6745232518651039
  0.3644747651444680  0.6533037312953200  0.3016654602475431
  0.3458662942348453  0.6534297218910349  0.0300990342566953
  0.3302696544264457  0.3044097801280468  0.6734930601239223
  0.3474987064487957  0.3468947239733192  0.3625066913839591
  0.3273551097652942  0.3236972318476731  0.0031731066223030
  0.3312016892912422  0.0045114839787665  0.6545092084933913
  0.3255034488138460  0.0237260727144486  0.3226871449871040
  0.3490838721893531  0.9775381814563217  0.9829375992020679
  0.9761754611576844  0.6386433165916451  0.6909699233404786
  0.0215845447062626  0.6487375843359093  0.3369426448633237
  0.0222410662351054  0.6775444919495563  0.0036061901225967
  0.9843366188967273  0.3443271392753024  0.6703907441314968
  0.9819614651476342  0.3601206596322112  0.3307586604375388
  0.0141941380801913  0.3501846898407891  0.0093666253621274
  0.0009999330194813  0.9937563880701777  0.6837253831160616
  0.9740293928355339  0.0139604655280290  0.3461350798586021
  0.9985326431754157  0.0125861187035197  0.0217008799885746
  0.8441157808979849  0.8351330594387891  0.8185895709801376
  0.8273174126665130  0.8233165828413408  0.5035917458822697
  0.8393001223571507  0.8388241142624757  0.1673438477260507
  0.7962995968163682  0.4954637494103968  0.8320866779147676
  0.8216389290691646  0.4829024222409821  0.4907252801781821
  0.8319452189052533  0.4946850125503157  0.1737319697100755
  0.8524760180493640  0.1536034904526041  0.8317270865037335
  0.8161581762139339  0.1639638991604222  0.5053665047975484
  0.8381093654801707  0.1710352529224939  0.1626517810203927
  0.4967550931757336  0.8415722638887982  0.8184678718378757
  0.4988578648822977  0.8286438959929214  0.4896312429455346
  0.5179992452428820  0.8409561569204221  0.1703217621751015
  0.4894812819999342  0.5019990257381794  0.8285446903704583
  0.4939046774039175  0.5008200906009002  0.4945749568379901
  0.5122339204412250  0.4925619981387845  0.1461714965334203
  0.5108808170704096  0.1663503015276317  0.8364343251167643
  0.4968554565069601  0.1695222321824389  0.4834373800797258
  0.4869328873862261  0.1537319405369724  0.1689330215221916
  0.1560386482621022  0.8410143749399072  0.8306414297509422
  0.1640238386972051  0.8644958317308306  0.4962183405980328
  0.1727009652734905  0.8470691299371828  0.1830277437142106
  0.1782546728374224  0.5005140209017989  0.8403089407890917
  0.1497504746338521  0.4883710294732325  0.5039421875906588
  0.1575172968891232  0.4982663519130808  0.1779910145924316
  0.1753685084486345  0.1544056481223322  0.8197143366389251
  0.1627372933403211  0.1850572734396239  0.4776725006175780
  0.1709928655856684  0.1590952249752794  0.1669320200148492
  0.6479983823660043  0.8135928780542031  0.8252048869633596
  0.7918049066054911  0.6687578219753419  0.8522747275783767
  0.8685590900581210  0.8281024441204637  0.6823649923714581
  0.6616503459936321  0.8027299138315211  0.5018532214088823
  0.8418153999055326  0.6457137290679359  0.5114534861811312
  0.8327408381812772  0.7994084908005327  0.3458511151933247
  0.6880106797995552  0.8644261968257442  0.1676423567748469
  0.8383989171320188  0.6839379478863400  0.1685406470504634
  0.8682705100561112  0.8335085418797759  0.0057339954130675
  0.6573763822377153  0.4754094635412098  0.8428325583319202
  0.8054026602692173  0.3166973449554875  0.8668250219670310
  0.8095561394451701  0.4803736225656821  0.6793938491072186
  0.6604919369591894  0.4690145501296685  0.4919668867300394
  0.8343621978783157  0.3366055392229276  0.5446550850431183
  0.8229077418164974  0.4784552214159576  0.3339498014193596
  0.6697548772958679  0.5036973481995025  0.1489308808609996
  0.8246427845446306  0.3254504525248668  0.1399272090895386
  0.8566468249807688  0.5111563801257502  0.0012410552472932
  0.6691881625276114  0.1860365750205183  0.8394267637066289
  0.8372010348228905  0.9975844777828921  0.8232879028029828
  0.8006533978006747  0.1492656407198114  0.6673320309255701
  0.6576526546751051  0.1618756617160244  0.5019326132977628
  0.7939648841962920  0.9914724637642793  0.5389530794225982
  0.8305453953713740  0.1678339905881894  0.3420538266539714
  0.6667520744410602  0.1422987393153696  0.1446179802620788
  0.8639882872765680  0.9894093386605621  0.1928792406978053
  0.8588374095414800  0.1459496730978114  0.0062425168326357
  0.3381925479370125  0.8454833974008861  0.8266724021026487
  0.4754218732067302  0.6661543672041236  0.8390989938278030
  0.4870987561107258  0.8041098995145328  0.6622345534461850
  0.3265061104762724  0.8747363732611866  0.5156393131996215
  0.4639399680369768  0.6677232578098874  0.4751566157880471
  0.5379804549471381  0.8682860758088554  0.3215683306835769
  0.3477831569389924  0.8311080809539667  0.2068607353195914
  0.5017118028847780  0.6732006098906836  0.1901375889797771
  0.4936498217483827  0.8247965674868898  0.0168187646473337
  0.3450484484687678  0.4750036377920310  0.8654271417328285
  0.5217324858637197  0.3345187390105825  0.8312121930601923
  0.5005694260726691  0.5393442658215057  0.6644227493677098
  0.3090280326974181  0.4904671615725675  0.5271328781674359
  0.4908409035217490  0.3248616934509010  0.5163173628451969
  0.4936608337798847  0.5040957246332535  0.3341133219900833
  0.3483494668531497  0.5086457179141005  0.1651359657739454
  0.4869740610481291  0.3164907883940041  0.1303672677855839
  0.5025620774642127  0.5065339989319410  0.9796271084969305
  0.3318819453916590  0.1335044479627350  0.7934884548793928
  0.5062738203323753  0.0158553902006680  0.8362425052444968
  0.4916423122113934  0.1711354745547856  0.6349921640140289
  0.3320563565376548  0.1585226094585248  0.4893086551991802
  0.4902566585709910  0.0087339793921355  0.4998848207778893
  0.4952526796130813  0.1825627851492429  0.3243817427907132
  0.3181544967172090  0.1712580441333609  0.2222622961802237
  0.4995499629651200  0.0072035575168233  0.1588376505505067
  0.4922446541403921  0.1649218548089290  0.9933785972812824
  0.0001375087052669  0.8547136660117479  0.8408488542159722
  0.1812146218858149  0.8518596875238577  0.0247279991498116
  0.1723189854307629  0.8768110076078464  0.6811003091359386
  0.9932226527186107  0.8794376200335472  0.4874112659772114
  0.1653734603227662  0.7139863810810243  0.4940696179511935
  0.1603434416576838  0.6890327938140793  0.1800792925222394
  0.1576115671661546  0.0036839423466820  0.1993713393358932
  0.1550663911425363  0.4854759178088494  0.3341855074759956
  0.0629447051803807  0.8325905756949316  0.3003341987553870
  0.0051155126329137  0.4748434775103319  0.8269001730189376
  0.1675085899932201  0.3171046079367191  0.8120221087514573
  0.1484318243468905  0.5379358593807202  0.6725692640400474
  0.0025027718370840  0.5102610047996488  0.4828567383304518
  0.1588595805341338  0.3499789429875043  0.5488178758633563
  0.1642878541767374  0.3345120386752384  0.1558647461709353
  0.9961977341378428  0.4885467766377561  0.1704909911886258
  0.1726811071799179  0.5140195488016953  0.0115938719918718
  0.1619439108831962  0.6460936846401669  0.8706212176432289
  0.0013994775205673  0.1565491987580524  0.8354021900759059
  0.1422385383981732  0.9967151674697740  0.8562790585041328
  0.1394669780835562  0.1541799925687123  0.6437070128710206
  0.9865694057017874  0.1652369426330931  0.4839585487618067
  0.1724475468500084  0.0247927898864051  0.4443773399732334
  0.1220110964306983  0.2130545538254099  0.3358636074750566
  0.0084745795041267  0.1814464606984267  0.1382251417277967
  0.2243364417147597  0.1452667044749291  0.9951415837984534
