Cl O  Li
 1.0000000000000000
    11.7780000000000005    0.0000000000000000    0.0000000000000000
     0.0000000000000000   11.7780000000000005    0.0000000000000000
     0.0000000000000000    0.0000000000000000   11.7780000000000005
 Cl  O   Li 
  27  27  80
Direct
  0.6716473692621938  0.6742448291411073  0.6948375723857324
  0.6788236510854621  0.6700719979392059  0.3359248182783119
  0.6835652618115269  0.6698130532572678  0.9994870422843333
  0.6694206717158218  0.3542577440646082  0.6608590989925209
  0.6967336272174927  0.3368839971871541  0.3370125802724198
  0.6713396801466952  0.3260061748190264  0.9897924699125656
  0.6382495376182564  0.9857367786580704  0.6677808895289438
  0.6823261653550858  0.9934895056648392  0.3308157619716858
  0.6656152860944815  0.9975222086393600  0.9874767455823330
  0.3081964436136272  0.6795355029966975  0.6738428509291874
  0.3380120249730759  0.6626928842121681  0.3347311869372266
  0.3524352963880622  0.6558666392431897  0.0052121688694328
  0.3291477647107228  0.3226639422873317  0.6655145162808361
  0.3094502970019893  0.3591070459810977  0.3110430723712949
  0.3122526161068038  0.3220803046177225  0.0148719864145258
  0.3340920251562125  0.0142896479153956  0.6774037856453460
  0.3426399729107510  0.9983522269132603  0.3332828416395413
  0.3522340839006899  0.9944242846813277  0.0051538736746350
  0.0099014981123945  0.6733490489609069  0.6894010295981498
  0.9908733124276476  0.6723805974698746  0.3131125245854833
  0.9900738293253134  0.6797743669153083  0.9716221858789342
  0.9846215933807050  0.3173305563242609  0.6638412542882622
  0.9926208809620639  0.3432720685644164  0.3289290406552346
  0.0230791435334186  0.3231790584006275  0.0060765424928771
  0.0076261516527258  0.9849917395759139  0.6506091243616505
  0.9939778804210009  0.9954403862346832  0.3405816120705650
  0.9843467961304397  0.9910651874460573  0.0061917475223516
  0.8435746948731757  0.8520932269257622  0.8357387826375324
  0.8339968185326201  0.8345233687225876  0.5124880876954307
  0.8268183504972154  0.8257723663945248  0.1789126820557200
  0.8516257854342987  0.5050667867479264  0.8251212409698708
  0.8310719905773453  0.5178545893005122  0.5052783244381470
  0.8398727899596268  0.5110706110995048  0.1681063366788310
  0.8205566340843573  0.1543867508719456  0.8150711428078449
  0.8180253243136414  0.1680526516019433  0.5046663064961741
  0.8522593820997663  0.1597359059021856  0.1566214254673900
  0.4898208346120103  0.8320910052937505  0.8293843546359254
  0.4976088509793817  0.8213905495065438  0.5054777555674821
  0.5054379600378364  0.8224512672468156  0.1781281962674281
  0.4974067882984010  0.5077832362982708  0.8399570384693800
  0.5030331266877544  0.5196217369587232  0.4988527635712857
  0.5125354167679630  0.4896295784838471  0.1603979247487422
  0.4991040176536559  0.1795597994247905  0.8445531041467321
  0.5069460820432893  0.1597784054612638  0.5127470323773687
  0.5187461215643043  0.1547618785590419  0.1654222754564339
  0.1649948624907273  0.8631425050049606  0.8253204291867463
  0.1791834298629734  0.8185369758727529  0.4985052772978218
  0.1808559428754635  0.8271807728353103  0.1800153629233885
  0.1564816107325022  0.4838099222620586  0.8316925088270849
  0.1502881425994403  0.4987792406435303  0.5085815695200753
  0.1416900131792886  0.5042410463269117  0.1654547245124961
  0.1364332256118131  0.1798176914860704  0.8167587366355352
  0.1642730886024232  0.1734967854038885  0.4883115369013497
  0.1640558540140696  0.1375495672536997  0.1530267562834040
  0.6816037437002227  0.8467010561474673  0.8326915268026173
  0.8578235348994612  0.6759295889901026  0.8155061180521760
  0.8570292111565553  0.8374342696968451  0.6641688217400387
  0.6688376008419517  0.8492304226185063  0.5201680485036883
  0.8286228661887954  0.6721576038319580  0.5046786950316139
  0.8675307216393460  0.8376695708993815  0.3606202300861076
  0.6652280836338724  0.8374614758923208  0.2069114401589687
  0.8460017142279014  0.6766627392785980  0.1919117577200466
  0.8489615215773594  0.7962665996345963  0.0257308831186782
  0.7023113021441054  0.5265274143019923  0.8321729896721821
  0.8592210912503840  0.3691393710481627  0.8215086468706365
  0.8746010936302268  0.5147146218768479  0.6538616007395215
  0.6665659240051428  0.5283041165169475  0.5432128296630632
  0.8343050744438580  0.3543926819359185  0.5017192115654355
  0.8107036998687098  0.5153457489323097  0.3402623441278252
  0.6791277774848866  0.5004181305230702  0.1658364209573542
  0.8427244202937408  0.3153828842231541  0.1496437853079631
  0.8793825015142566  0.5166399055462612  0.0094813085357221
  0.6657761346281496  0.1816706277279315  0.8298279127871626
  0.8595325859944167  0.9858167917449597  0.7959477784546811
  0.8294043155713423  0.1610498497602424  0.6551450692052503
  0.6752732425758866  0.1403727161019251  0.4914304114264384
  0.8443687757036218  0.0044518305722669  0.4711152375756364
  0.8140216411544443  0.1812473932524810  0.3277874533086196
  0.6821651953651879  0.1727060041343519  0.1302847047768109
  0.8150843831652127  0.9729658370135531  0.1448663854795166
  0.8431100033379528  0.1434746272402514  0.9683122834774099
  0.3310931089007583  0.8596027846436076  0.8046396720842399
  0.5005593061991448  0.5075799185695821  0.6689542376796521
  0.4981237444229230  0.8109077432831426  0.6819609448437511
  0.3222229984966697  0.8093407959770555  0.5165624988657825
  0.5156275304370853  0.8175875120389799  0.3387078663279978
  0.3302320247168713  0.8071583084983313  0.2022391404547109
  0.4562766077257513  0.8197539672953701  0.0100576563012050
  0.5134240715160153  0.6644008422010554  0.1385835761680827
  0.5090084897961492  0.6824557965860597  0.8457326164440154
  0.3359058120066674  0.4728059878419866  0.8491323278935515
  0.5150317066590860  0.3513381387272150  0.8531956055761714
  0.5397978869634464  0.3351226794279736  0.4925222624469495
  0.4906999752887279  0.6753432387980278  0.5088685705910977
  0.5462674149854961  0.1432991432308923  0.3163692721741023
  0.4951564472726273  0.5057081970975114  0.3158348850056779
  0.3320275931328558  0.4897141929906093  0.1561979784435374
  0.5169810386620001  0.3349568309461788  0.1675101890175522
  0.4861675931612021  0.5151229172360328  0.9995724418284975
  0.3391419727643350  0.2025512612992822  0.8143461300867461
  0.5063377887590305  0.0026415324254961  0.8207373188405732
  0.3442676888171490  0.1626169084012068  0.4750622411609258
  0.1523519470989429  0.1236341751849834  0.3298821481759018
  0.5063079510119090  0.1780259084559146  0.6824002925123553
  0.5022347139184452  0.9926323435050394  0.5276474445911327
  0.1379071475672242  0.1582145755317417  0.0005023499441032
  0.5319059040633641  0.0042230620701738  0.1600553979379953
  0.5071028820359639  0.1777706074608705  0.0139379209533872
  0.0016546488914267  0.8392859104055882  0.8421427647808991
  0.1812270321429189  0.5121472800912907  0.6784450703888495
  0.1578078823978840  0.8366150069414199  0.6779479095548594
  0.0225891233136057  0.7863091320904995  0.5177519602096446
  0.2110540303879690  0.6363408904006914  0.4984466949096472
  0.1755106542018722  0.8358976054773887  0.3462643061505465
  0.0138802258118745  0.8458312676004444  0.1696684864638409
  0.1641439502660861  0.6707781849446853  0.1816173503517735
  0.1750663065851411  0.8174349630143485  0.9700820753389572
  0.0124282292362807  0.4998914963106481  0.8416052804786146
  0.1374418183867949  0.3397887848645115  0.7962026745956257
  0.3278862190944731  0.4639142582289931  0.5093773507377387
  0.0049960214244526  0.5142479870419483  0.4958131999642578
  0.1819074299422704  0.3335827966184274  0.5178995295288542
  0.1609995901754439  0.5009982459620150  0.3402496721945157
  0.9997109396161095  0.4718286700461788  0.1850830026556522
  0.1454281019279659  0.3172578850134293  0.1783500967992766
  0.1476731697290957  0.4813006770397568  0.0145141725660215
  0.9913360986182655  0.1325048118994012  0.8295953645925015
  0.1456466624134948  0.0074887101231330  0.8187588778279166
  0.1673100206578054  0.1753997008843133  0.6734018028733660
  0.0018467129413228  0.1731312021521841  0.4660517678405959
  0.1956908699386591  0.0067583248616191  0.5235218598626241
  0.3459682379760185  0.1308803044617403  0.1655987513583364
  0.9972383159774311  0.1071496397299680  0.1494499310438465
  0.1839226721925571  0.9985571071257388  0.1256286802073467
