Cl O  Li
 1.0000000000000000
    11.7780000000000005    0.0000000000000000    0.0000000000000000
     0.0000000000000000   11.7780000000000005    0.0000000000000000
     0.0000000000000000    0.0000000000000000   11.7780000000000005
 Cl  O   Li 
  27  27  80
Direct
  0.6442711315972957  0.6722823911874664  0.6798578891125904
  0.6810341914857702  0.6816123753629956  0.3233461222413082
  0.6536567022406643  0.6730792250257880  0.0347503587553149
  0.6662383126004562  0.3155254446736236  0.6699237816500253
  0.6739536576569960  0.3457194229170208  0.3301710716771688
  0.6873295917596935  0.3414950133028633  0.9987104014989502
  0.6399079784832941  0.9965639458066339  0.6753173289322579
  0.6803539556280584  0.0078157290596917  0.3309825207484767
  0.6906233227702875  0.9834091357382739  0.9785774724046740
  0.3448439141892398  0.6609776096861743  0.6705970135318183
  0.3343781725661259  0.6636291611243943  0.3341350184065156
  0.3077794606665112  0.6645319047951036  0.0173505190311582
  0.3417784399198542  0.3279856797744331  0.6437730003259207
  0.3447190976704133  0.3343744596463693  0.3461545090920782
  0.3347063675417562  0.3360601304170879  0.0231742794613787
  0.3260763963466914  0.9689817297507982  0.6719513719503418
  0.3335649016513709  0.9909431940875592  0.3445959827512574
  0.3395757907069828  0.0024554085962011  0.0071676027885827
  0.9897546983488388  0.6731186173296538  0.6682570782938606
  0.9984615443789385  0.6850735540290765  0.3196397436899617
  0.9821609499558668  0.6722920267150305  0.9944712770197430
  0.0015247135102961  0.3495569134684386  0.6557367628447092
  0.9951393420038088  0.3272724280649201  0.3389493814142319
  0.0031079081174573  0.3335090637663242  0.9946005678089519
  0.0194180482410902  0.0149744168094210  0.6434531655874418
  0.0147783532086890  0.0170968163487887  0.3301434808702987
  0.0202478738930010  0.9938231825535785  0.9934836702365513
  0.8312256697259545  0.8422246361785622  0.8173209164111520
  0.8182908241644884  0.8401168037957564  0.5024853163508901
  0.8394970009171188  0.8256435936276165  0.1580163698826450
  0.8400252545459381  0.4938110039147464  0.8398147721121446
  0.8239731133903705  0.4892347356028521  0.5034672494834304
  0.8280880504560664  0.4975811267440340  0.1716959141957904
  0.8371201834707112  0.1708688077963418  0.8053629837913941
  0.8368282836650865  0.1631243739727642  0.5033517850942986
  0.8428424722816082  0.1533143542916469  0.1615104024588875
  0.4773007990932278  0.8159794023930816  0.8418903781086430
  0.4899877524896679  0.8247415786942861  0.4834496433956435
  0.4868880680488880  0.8367390250741396  0.1673037532855713
  0.5273324257772550  0.4934749750122938  0.8538131693925779
  0.5123507998311635  0.5118614644192481  0.5035367629322871
  0.5257394868379902  0.5112769765560303  0.1864037373144981
  0.5087678815374108  0.1723334889569355  0.8435457455500260
  0.4916246585841210  0.1541662381661265  0.5023669370122431
  0.4903519997228445  0.1668277768464805  0.1610305288949393
  0.1561860030443685  0.8383124500458161  0.8420738579864641
  0.1557398437055429  0.8341155705104137  0.4884220614437424
  0.1722421218914620  0.8325899183224592  0.1739930968408578
  0.1583762839645050  0.5021278407066763  0.8463144617645950
  0.1626046409061311  0.5022712805140725  0.4951795217012430
  0.1382289828659946  0.5088842078581086  0.1818278333712933
  0.1666306922543168  0.1540649841558815  0.8154398023239769
  0.1687825525204259  0.1719529261035555  0.4713044657549407
  0.1635893371678993  0.1582014797023672  0.1598071610202574
  0.6723727833698916  0.8209647757723594  0.8271405716198336
  0.8450876311749104  0.6686867604749943  0.8117687472927979
  0.8507283823702003  0.8476895187530987  0.6534511590268828
  0.6714852622133177  0.8241877382863882  0.5026617517673827
  0.8154207324834443  0.6593515131961737  0.4776161006782477
  0.8530434190810484  0.8468411065025210  0.3114724802450330
  0.6611758954860739  0.8425426895590039  0.1757589692086559
  0.8454733761607619  0.6621347636729091  0.1620161461997835
  0.8077773300003572  0.8304641104176428  0.0009947627626128
  0.6904096407766555  0.5039529229865028  0.8551098361019454
  0.8672530692305177  0.3225769707061800  0.8133627388527209
  0.8530215569596841  0.4735386231422445  0.6639233175874713
  0.6591456736341117  0.5109105835961272  0.5557068694544403
  0.8267577808564537  0.3267958135764716  0.4899717619651975
  0.8347847421132559  0.5242756271235527  0.3434068452906747
  0.6724511631235240  0.4984246807454196  0.1633807777910777
  0.8411790077582384  0.3356070581945161  0.1680221061567359
  0.8578897655626126  0.4916241035263392  0.9921565540708217
  0.6765721325152999  0.1840820310365145  0.8347895610894916
  0.8395578100028397  0.0033187242220185  0.8280372424790529
  0.8249017677234375  0.1422618070155965  0.6566884128906186
  0.6667632869110709  0.1519828195229738  0.4897374324124993
  0.8291440718887860  0.9966693872101768  0.4854183679099160
  0.8640769888211924  0.1458030354584695  0.3346719561557658
  0.6490733084966217  0.1666955211335785  0.1680889475685370
  0.8532901371691864  0.0088239353255256  0.1422509059148205
  0.8550548152173916  0.1504119451321231  0.9683393928933097
  0.3291923559222648  0.8270918377117769  0.8284453354111878
  0.4855639117461753  0.6692157023557825  0.8357487414216491
  0.5107106144185056  0.8175178479705750  0.6645503151311197
  0.3260838659048242  0.7996275072623624  0.5113680177174683
  0.5120161069472388  0.6614540015048681  0.5022227279820579
  0.4976854054220667  0.8235892019859236  0.3251549698717512
  0.3318431381376960  0.7779129147317804  0.1855586651102399
  0.5092494554885763  0.6607360332450980  0.1636664124795148
  0.5230827532672987  0.8564031125623823  0.9865061641850448
  0.2834700569997317  0.4037714522214410  0.8442228235457627
  0.4923835171079246  0.3393620394804884  0.8722371078037212
  0.4777528591805513  0.5096967500354849  0.6950161124168140
  0.3382377074232528  0.5229713491571175  0.5064961654276455
  0.4982027684756138  0.3353868580498849  0.5118903199910273
  0.5338768113222727  0.5147979521725840  0.3502412683124599
  0.3481939199196420  0.5081912595816777  0.1838013351639380
  0.4945165719011195  0.3441509371653563  0.1633587739707786
  0.5035415389982058  0.5368543225338290  0.0166497456840883
  0.3422807828863157  0.1310686033040827  0.7995238540874274
  0.5062481101085262  0.0071561129273270  0.8653766121779385
  0.5134687639410820  0.1780096851286227  0.6894956838598481
  0.3263808668721003  0.1713208678836653  0.4849852954798516
  0.5079847722530567  0.9959862882748813  0.5039163946212386
  0.4819587264769590  0.1453184251015591  0.3421760888286799
  0.3166210895847111  0.1633686224508963  0.1559155819611677
  0.4567074499907690  0.0041195256305139  0.1736652459912120
  0.4870886327697013  0.1592472482050209  0.0023884856512827
  0.9854205758040984  0.8257982478935644  0.8499390395451699
  0.1892789087020352  0.6644519056250738  0.8710317761791649
  0.1471337487809867  0.8392172179870219  0.6797433963732967
  0.9988094453115621  0.8705436946025041  0.4590575482790737
  0.1501018556394810  0.6883099576992039  0.5032351061428686
  0.1798981355797436  0.8286385423128969  0.3263039660483842
  0.0148950840320504  0.8235861250947686  0.1667960358809410
  0.1481679182136943  0.6626166210219441  0.1845735943584298
  0.1772961585259878  0.8202383055765028  0.9931841186884492
  0.9969686195842398  0.4972698749124610  0.8633293459683939
  0.1672971428299460  0.1866375308396660  0.6514409774528378
  0.1337492216500306  0.5076730058491120  0.6481768007914959
  0.0091503504894366  0.5301854443532642  0.4765565165294540
  0.1422918455731627  0.3466273487202016  0.4868304585230054
  0.1854067221543039  0.4957342633136629  0.3319013168842248
  0.9862401131012096  0.4960743812425187  0.1793234059127735
  0.1583616990955763  0.3424051658035905  0.1692301199397003
  0.1718247780431570  0.4784517300647901  0.0072816406995989
  0.0113029666940593  0.1635545820600758  0.8433266385114628
  0.1866634500067714  0.1558395507654628  0.9767305986100380
  0.1612568816094269  0.9999449059935359  0.8239880537190899
  0.9978944089419692  0.1581789495717389  0.5085120554444912
  0.1690122869790966  0.0035443418205666  0.4600236111309198
  0.1246630608558290  0.1777520359798024  0.3312517892099480
  0.9988722903705936  0.1875692823065930  0.1670889883072237
  0.1730942790424586  0.0032143806689279  0.1262483087796598
