Cl O  Li
 1.0000000000000000
    11.7780000000000005    0.0000000000000000    0.0000000000000000
     0.0000000000000000   11.7780000000000005    0.0000000000000000
     0.0000000000000000    0.0000000000000000   11.7780000000000005
 Cl  O   Li 
  27  27  80
Direct
  0.6407825311598634  0.6761432226583763  0.6779991722664340
  0.6918924867374838  0.6744180988556769  0.3268108724327887
  0.6282664666787550  0.6582781853313725  0.0022131238420260
  0.7080778248917341  0.3273171250381525  0.6769417743297768
  0.6662387043057296  0.3314224468189890  0.3251840269627042
  0.6660406901657421  0.3343771125213851  0.9833959408391334
  0.6778272075598393  0.0109281251021026  0.6604153061114220
  0.6910292568268702  0.9887691558559012  0.3319017912757644
  0.6574470546260932  0.9986896790401183  0.0169865399669644
  0.3378266256646617  0.6580205766679622  0.6667688839194207
  0.3312506412571904  0.6730672626678177  0.3497924558672565
  0.3365820636778794  0.6687231376964854  0.0048280587572988
  0.3299058171527065  0.2977349825523834  0.6557115087582356
  0.3046243587934106  0.3239042049807129  0.3545397750361221
  0.3114260493612641  0.2897625551427623  0.9971265378867902
  0.3345745743835950  0.0026808106152127  0.6756420712146641
  0.3523009086961649  0.0012160143242345  0.3084000108090541
  0.3433751308534170  0.0057914552155632  0.0107758225189324
  0.0127457548720959  0.6625695173281509  0.6614679672551169
  0.0073006633371719  0.6743414194892619  0.3173614765406588
  0.0087826191161168  0.6822261555009658  0.9889021501610290
  0.9997060979217426  0.3548135199322346  0.6410579360888395
  0.0032692204710351  0.3612301740089106  0.3212237036775464
  0.9756746010140233  0.3391645122460855  0.0035868210022228
  0.9667926106724571  0.9995183042047368  0.6514009057063286
  0.9924333416201839  0.9871337970632089  0.3481844563554963
  0.0047828333102104  0.9861485884079714  0.0275221050053549
  0.8254135306415878  0.8442450413992806  0.8469139380388140
  0.8266939222161618  0.8435712832071585  0.5202548574051848
  0.8314764636916699  0.8302901254491163  0.1651361428829707
  0.8535623884021670  0.5236665454544651  0.8347058055856638
  0.8409099690604008  0.5174496868758137  0.4934293057537098
  0.8401979116704807  0.5055814294390599  0.1672400380596604
  0.8316700649219747  0.1467281382774800  0.8342471058911110
  0.8367003771062792  0.1747922499537148  0.4711303063307299
  0.8526498472622539  0.1493207328374836  0.1662980539053726
  0.4789567606669340  0.8483005458831933  0.8458389694342452
  0.5200107072126779  0.8396324576746755  0.5100301456701133
  0.4972866514708005  0.8239037949444811  0.1684159064271372
  0.4892127676238847  0.4934360088858975  0.8345097752307630
  0.5148923392617669  0.4997352147883546  0.5062473104221064
  0.4951813696688204  0.4816122854000710  0.1655880815140643
  0.4910448133942198  0.1696148947605298  0.8203472500984571
  0.5031505987310567  0.1637724654956535  0.4819352144755662
  0.5171344617493240  0.1791953419246162  0.1690236227943046
  0.1798998633035449  0.8300707754980938  0.8450853740137330
  0.1663172410617816  0.8341928379959379  0.4894472418034174
  0.1807088022794370  0.8413497677932577  0.1814209435680765
  0.1670053614530780  0.4943255138275583  0.8278471722887381
  0.1693444060120171  0.4996168354497075  0.4936185345597415
  0.1613058254425638  0.5078711222832893  0.1651929236704032
  0.1370222312246172  0.1868729748218026  0.8329588601470098
  0.1497182735955875  0.1457035740082793  0.5141584834064973
  0.1615769157474821  0.1567582164042938  0.1628374420350308
  0.6544931581464857  0.8504937215101402  0.8442401196251302
  0.8359796558386332  0.6928284746544923  0.8041809400868755
  0.8068708080376981  0.8526617961829278  0.6856496192108497
  0.6647772214925207  0.8261044198868559  0.4805447835567916
  0.8540419785682458  0.6766857271514926  0.5436951000487955
  0.8540068372324229  0.8215114311006589  0.3337418531572665
  0.6730813458657314  0.8381177365474035  0.1827411120579107
  0.8275020919692653  0.6680031451662183  0.1644302190326558
  0.8151570378597179  0.8621512523881874  0.0011901400852740
  0.6846409020517381  0.5221468446217711  0.8728087301159055
  0.8052885572466559  0.3032655931899478  0.8373524178038717
  0.8091068981991750  0.5148206048401072  0.6693345253177606
  0.6689252351381325  0.5408623589552594  0.4564505800865164
  0.8630958927334348  0.3401248059270159  0.4711326544845061
  0.8452075762957189  0.5230661873105533  0.3276730699654489
  0.6745813303037875  0.5378807704552570  0.1425120962249828
  0.8474785648805589  0.3099059089138043  0.1616822111052679
  0.8667987692968220  0.5004159364709856  0.9902504332377243
  0.6646072637416176  0.1594538564539320  0.8404436407939754
  0.8312479640380024  0.0039565511120282  0.8026651663389450
  0.8333157968357933  0.1788879564496920  0.6590660488545503
  0.6882855605956402  0.1703090373565539  0.5202319021777523
  0.8179502882327071  0.0236864365638895  0.5080086281812868
  0.8495072887723538  0.1813116155153933  0.3222524986720853
  0.6767129276222247  0.1767205902715781  0.1927294902124924
  0.8460856238663683  0.9908806015615437  0.1851912890671188
  0.8271127032965196  0.1425249430181280  0.0044249929744253
  0.3363565194591369  0.7864472604692462  0.8549259196939405
  0.5014551102484290  0.6681513217665770  0.8243489899579772
  0.5200961719130487  0.8861352140872121  0.6712211049352769
  0.3659578925146246  0.8123187329502157  0.5065436231374135
  0.5037644790018867  0.6684177967347629  0.5463085952016775
  0.4895077443206641  0.8190228739228333  0.3493025419216447
  0.3552475178019841  0.8723952756637977  0.1606262402793108
  0.4751878523999443  0.6659805750567336  0.1663780631967548
  0.5133615454267508  0.8136578283691942  0.9891166089684640
  0.3320707946916342  0.4705889989540504  0.8608397854646455
  0.5259019821246396  0.3414895286104824  0.7965127605329089
  0.4838503131364813  0.4845826999269315  0.6715179844463233
  0.3437701065127334  0.5027412969613672  0.5257242338602242
  0.4973717922878917  0.3392020827065042  0.5163213759468134
  0.4947731552804555  0.5013754002010123  0.3370965349525160
  0.3387829720181236  0.4939198905054291  0.1839644799325925
  0.5410303271963322  0.3227313224122187  0.1700674479972814
  0.5023356274290844  0.4498274329733157  0.9946562908681917
  0.1583143281384801  0.1648378188153628  0.0077915402310880
  0.4810032576536898  0.0016626487340423  0.8310111880459031
  0.4496584816329175  0.1529381143364426  0.6716222343769035
  0.3374485931494026  0.1728079385566177  0.4608740564613196
  0.5243081120209464  0.9860867304970993  0.4783644013193838
  0.4890009479591098  0.1767997190052942  0.3240593625174415
  0.3314685539761604  0.1726877778599334  0.1663430433171618
  0.4983110133129516  0.0089662932288713  0.1656514209379061
  0.4604701508412128  0.1501095708073434  0.9649155126294415
  0.9940349678428022  0.8178720356600482  0.8624136152904214
  0.1868580097380885  0.6450283227952095  0.8544294066265095
  0.1768327696177619  0.8158208018803302  0.6492159081321884
  0.9743921851689527  0.8412972987019831  0.5261919618011920
  0.2051124154951330  0.6644998211883961  0.4907228965850292
  0.1549221973390416  0.8201810805302262  0.3408410102746104
  0.0153304307389502  0.8164804711497955  0.1605504111065044
  0.1965094075830842  0.6803597781030065  0.1562409618887804
  0.1958820051853364  0.8517791332755459  0.0102249229965157
  0.9854387583166997  0.5056930072288381  0.8082839744420509
  0.1858394777949679  0.3319801940689452  0.7862590207589145
  0.1558357910996132  0.5097749891708475  0.6648767982861533
  0.9989583947493736  0.4959646061341478  0.4598640264542852
  0.1931236937211203  0.2991921941548443  0.5039032861577453
  0.1751475037011425  0.5001443198557380  0.3400404517785747
  0.0056847615794602  0.4928409138452770  0.1657409847860327
  0.1989263258280315  0.3315111098667445  0.1789316374101672
  0.1510845650886890  0.4831929977455356  0.0129994178707684
  0.9909640141262157  0.1758808014133163  0.8633520670926924
  0.1794991387160177  0.0126331542246150  0.8222647200837530
  0.1289825373063906  0.1450371639180600  0.6836681822778579
  0.0134486448470039  0.1739663273483554  0.4922162414158562
  0.1292330711444150  0.9919990881862841  0.5139790925550796
  0.1393216506885834  0.1370037452383732  0.3287647792870254
  0.0006584818052435  0.1491932139175439  0.1311719405967610
  0.1693170277535492  0.9999741756138548  0.1664344897368504
