Cl O  Li
 1.0000000000000000
    11.7780000000000005    0.0000000000000000    0.0000000000000000
     0.0000000000000000   11.7780000000000005    0.0000000000000000
     0.0000000000000000    0.0000000000000000   11.7780000000000005
 Cl  O   Li 
  27  27  80
Direct
  0.6682202149692306  0.6507706942349726  0.6519749794241415
  0.6644463674822289  0.6485592192027356  0.3254715449490040
  0.6652486668508919  0.6649598587670152  0.0165196831886108
  0.6668346018142380  0.3188432674493319  0.6673017434899207
  0.6634571874613105  0.3235091704588202  0.3386699910145508
  0.6581059069470490  0.3366442771005251  0.0079112116439745
  0.6768580605765274  0.9770011712585710  0.6809082015167829
  0.6473217273320989  0.9727145431603593  0.3302870213054935
  0.6455599642334092  0.9917989143704957  0.0154089520502107
  0.3403870169621045  0.6858168893443745  0.6592707336921251
  0.3150354378728029  0.6408138744574345  0.3034223000199072
  0.3460755409411166  0.6409992166641124  0.9953305498446859
  0.3300259503663750  0.3449741501944539  0.6653376343123808
  0.3186417769762024  0.3680198625182573  0.3461305006582609
  0.3471897803933212  0.3172266647879608  0.0079869946381102
  0.3641803733511597  0.0181793852397692  0.6509344234180169
  0.3308601927234758  0.9721386989321623  0.3376558922238180
  0.3199320874762102  0.9924349597706800  0.0052773782658614
  0.9972192962399362  0.6732878290466772  0.6668568493201557
  0.0187912630994122  0.6771414732766586  0.2958369131292555
  0.0024974245209770  0.6705490315500493  0.9834098837284800
  0.9960666693443920  0.3567266598442064  0.6645475615375179
  0.0013286977165541  0.3550252604917284  0.3277790918590145
  0.9946717581456821  0.3305685911463138  0.9902429055755310
  0.0167799289563532  0.0122503956381157  0.6602838001049045
  0.0060750627898020  0.0133437193154132  0.3384826245373760
  0.9778957827739955  0.0037485414716639  0.0087016405639278
  0.8462573152495880  0.8366302234811458  0.8414590054800694
  0.8315092091479959  0.8225707742025318  0.5081146500748523
  0.8369716625979363  0.8368841479722521  0.1517575273481657
  0.8289554704601765  0.4933411939213707  0.8251728586550832
  0.8245180266189462  0.4994029528945646  0.4938994129388122
  0.8257376900786190  0.5013847137108359  0.1678992019878023
  0.8206297268780611  0.1648714944206141  0.8471770028375134
  0.8436177474927083  0.1579923552635568  0.4960007676560285
  0.8212666433471433  0.1712642519840764  0.1695846602101188
  0.5199757205781842  0.8281964648253263  0.8455720802169082
  0.5045573785151340  0.8344519464850545  0.4987925605542601
  0.4908984513969976  0.8199316112997516  0.1778478335911812
  0.5003026858143460  0.4930987268012757  0.8277206055022323
  0.4954104288779165  0.5084437093015252  0.5127646828036464
  0.5067667483060545  0.4883479258871558  0.1716008133821290
  0.5102133927099692  0.1610414430632716  0.8415742269567418
  0.4962420396833717  0.1664201322000585  0.4909658401349916
  0.4668455025594452  0.1620807237789834  0.1609588994976871
  0.1851293767071191  0.8399161812930320  0.8068298910638080
  0.1751683262042429  0.8522098189319631  0.5164685310168721
  0.1587608952124468  0.8515831047861842  0.1751089956091434
  0.1796789676666340  0.4938771802634874  0.8449387264639001
  0.1659169039666905  0.5265810110103355  0.5174129746598133
  0.1595620711109840  0.4948203688587207  0.1525903122305089
  0.1870586886748208  0.1726085295355262  0.8284747677184836
  0.1726351136192600  0.1892924657558194  0.5139679496722960
  0.1657070782083549  0.1747102283787271  0.1734042157249359
  0.6938904749628277  0.8066038143494654  0.8566737464165611
  0.8812790571713898  0.6773546694453714  0.8162919791319521
  0.8081877506971318  0.8397820936153305  0.6746451490853966
  0.6562288818862771  0.8445828535253092  0.5154672863437932
  0.8293492315571950  0.6715737577608898  0.4979639051837301
  0.8015740541303071  0.8532656784230427  0.3604612831542529
  0.6481917992769912  0.8287192124383944  0.1512035857267432
  0.8162618369710974  0.6685648416091818  0.1725805603025328
  0.8521353109470913  0.8337902529450926  0.9992554412795754
  0.6611029608736462  0.5082974760008434  0.8203861876677617
  0.8165499311481879  0.3452149169273317  0.8599713640265085
  0.8132600057661279  0.5156678448793356  0.6526900327343965
  0.6628982458917612  0.4912684219035677  0.4839780583803762
  0.8616556170347206  0.3290592140931529  0.5213262538986277
  0.7987059057489398  0.5077462266591817  0.3318470253637769
  0.6565113081059770  0.5126497790249825  0.1651552426014078
  0.8018330797830650  0.3371671866552332  0.1710586935004073
  0.7962193728416109  0.5308518169042774  0.9911454607360500
  0.6579931550803826  0.1429911546217621  0.8208533083275806
  0.8197096554519000  0.0132550562676576  0.8714052535000801
  0.7921295367300744  0.1473886596060926  0.6787258759796984
  0.6463834779568775  0.1674454454493431  0.4550561722025165
  0.8465169886689048  0.0006352033263838  0.5338813058295027
  0.8271867438709781  0.1595337056692131  0.3460026882190991
  0.8194359740807459  0.1403438035448227  0.0107381591623039
  0.7958771091860287  0.0210963020929091  0.1639678358920999
  0.9952786841718587  0.1635234213619829  0.1724486588369677
  0.3459575259711589  0.8086548052167238  0.8493630530323119
  0.4910798665189120  0.6707117019271641  0.8187104965505918
  0.5030246008950313  0.8525452000678565  0.6796046522877265
  0.3406083102128039  0.8665071604793495  0.5099402181795980
  0.4856655907067930  0.6902027547733489  0.5322290152792747
  0.4780365605442324  0.8317348896535612  0.3481150144824077
  0.3350737522477710  0.8447690864110056  0.1721690463532582
  0.4791703949348452  0.6475682578237801  0.1838134397157819
  0.5150037883550046  0.7963579287449982  0.0041082099174364
  0.3280392300873868  0.4520908121666267  0.8447517648408247
  0.5359012638568877  0.3225436744027132  0.8041419837274671
  0.5103843221107106  0.4846352113691547  0.6759921796447221
  0.3113765284646041  0.5472227401776655  0.5063752754078561
  0.4887811859136770  0.3411578739978415  0.4553059266963996
  0.4709374439122985  0.5101711002871809  0.3637999124844635
  0.3211345446366611  0.4910576143740411  0.1510579597072104
  0.5529606820116142  0.3312197989651028  0.1856299998168173
  0.5204808570379311  0.4690706764908327  0.0034821232955115
  0.3448639340780206  0.1778230503350307  0.8160943293606543
  0.4998963337548380  0.0124932714078172  0.8754010824897502
  0.5255884558697996  0.1847288693772345  0.6399953061392492
  0.3470140737142075  0.2150701132992668  0.5118701171857438
  0.4867171992298298  0.0149432143607491  0.4940192092668069
  0.5085871342783287  0.1663580377025722  0.3182958704068848
  0.3045584817911372  0.1634997778825814  0.1447361427033051
  0.4561646417106467  0.9968151553445100  0.1703528101355023
  0.5076984390448666  0.1900906963407839  0.0008922513793260
  0.0066776216952945  0.8563577920921651  0.8230557955988125
  0.1899227075443747  0.6860768056761511  0.8199966370533766
  0.2002556772656099  0.8584931545537260  0.6512906545400263
  0.0062692738315937  0.8153447762958645  0.5198403583832285
  0.1834235644449583  0.6943163963059270  0.5278522590675354
  0.1320366481779791  0.8475682476538451  0.3226402585333819
  0.9995145934668113  0.8190786646832611  0.1750567896730335
  0.1485185014745865  0.6678337965620029  0.1760702406972073
  0.1990044554288935  0.8306553866830801  0.0185091931653772
  0.9786649119402319  0.4936161303402327  0.8489270251673224
  0.1649040804663707  0.3335204228700146  0.8334201415127465
  0.1944248875560896  0.5083054516266006  0.6743028449444044
  0.9851653138828634  0.5207616786718264  0.5310706467302418
  0.1553106476070480  0.3491401393620766  0.5101396493089331
  0.1709288357748850  0.5187833591153996  0.3438484595565089
  0.9899593089338758  0.4691912825270263  0.1430866760104200
  0.1538919173867294  0.3278749348817623  0.1357674300833222
  0.1635769484860278  0.5049597373496515  0.0064580365634009
  0.9942015277003126  0.1547431075971280  0.8273399616780326
  0.1894712344954952  0.0041681974164269  0.8169095435750859
  0.1750736510731121  0.1706481247729952  0.6703462058315506
  0.9994022908933076  0.1902624354497241  0.5011097025064251
  0.1657745269013050  0.0169229078907756  0.5046056986250491
  0.1484782184917021  0.1848904466482813  0.3319728135324420
  0.1805985532678759  0.1481427914582864  0.9956456923874120
  0.1356431391016658  0.0124520901548999  0.1696136072782216
