Cl O  Li
 1.0000000000000000
    11.7780000000000005    0.0000000000000000    0.0000000000000000
     0.0000000000000000   11.7780000000000005    0.0000000000000000
     0.0000000000000000    0.0000000000000000   11.7780000000000005
 Cl  O   Li 
  27  27  80
Direct
  0.6922559733163167  0.6622290640855646  0.6330469742068336
  0.6766415199275464  0.6323935031763134  0.3318259697408305
  0.6745475740403479  0.6927318650359386  0.0067354267307976
  0.6634191469847285  0.3266875654832271  0.6807950618289411
  0.6874223392534718  0.3466929854626238  0.3205669974808788
  0.6961372285958735  0.3431329819108939  0.0144348736729241
  0.6415141515712267  0.9795766929829740  0.6690411756752510
  0.6533681176582739  0.9887522227892669  0.3333136466142666
  0.6450999443290846  0.9908689322307853  0.0074090077992514
  0.3127697484427153  0.6710833446943689  0.6705575971897405
  0.3190164447684880  0.6656971252713344  0.3521073382743375
  0.3473496730859068  0.6646998481684292  0.9932882142684041
  0.3193264820377629  0.3653829535024437  0.6606705742589286
  0.3363402124073787  0.3194751099461829  0.3079688083457190
  0.3415569801471344  0.3369113865392802  0.0043642775580730
  0.3500423172152098  0.0087158592952733  0.6612329975737322
  0.3534417151457315  0.0061124437442958  0.3341105209379984
  0.3625364386041342  0.0090753229242323  0.9830217747273811
  0.9891037845295676  0.6727039756540286  0.6927036022485796
  0.9776798974825878  0.6564017966067086  0.3177479781444666
  0.9854892876160664  0.6641800559902861  0.0105156892575201
  0.9800612113398361  0.3304069398511625  0.6844938088805150
  0.9835101026840022  0.3285172226143762  0.3223316957717887
  0.0029161719103512  0.2969721652706602  0.9978145134630872
  0.0032487446872229  0.0178897810716904  0.6734590245780733
  0.0116823053440844  0.0165663750142305  0.3410798818310937
  0.0024860150623865  0.9979600134577240  0.9968627704272517
  0.8126399875217443  0.8271777576445760  0.8308289708536621
  0.8508884975861088  0.8247208600573188  0.5068007536137771
  0.8294688007814863  0.8503131451513832  0.1619712643273644
  0.8191004872973785  0.4902106463022313  0.8275111105387477
  0.8440714023197753  0.4880790894692040  0.4886294846460322
  0.8480449643339816  0.4925805407435401  0.1481545250813050
  0.8186692367107611  0.1405977451039968  0.8336848116704095
  0.8210635438542604  0.1614179946864309  0.5109725321950204
  0.8349850188558190  0.1598416547652391  0.1768099059269214
  0.4980620770957124  0.8186766312666263  0.8323142995733223
  0.4982143427224743  0.8374806467062305  0.5064285307548435
  0.4757129162498243  0.8335173679861475  0.1604797514613369
  0.5042571950092292  0.4810419155144692  0.8467212756108100
  0.4939860060235532  0.5111554087629175  0.5333646480608486
  0.5072652204819184  0.4961607465148273  0.1595360264344220
  0.5134696095543101  0.1703892275231823  0.8396164100506655
  0.5015953602768859  0.1850809576914412  0.5051360340426994
  0.5155221388671460  0.1832553693439904  0.1559144546955348
  0.1624849816966904  0.8278679529131315  0.8167756753573582
  0.1575118753966228  0.8546863791324583  0.4936958288451780
  0.1645838971679583  0.8282119169559311  0.1716061340037546
  0.1691205505062321  0.5061690637338014  0.8465507510641680
  0.1815973441397046  0.5038541079937729  0.4860634788790029
  0.1667895625438698  0.4948498289411630  0.1598461952812791
  0.1784873764048015  0.1686079302141994  0.8423039935037268
  0.1570552505793292  0.1919045103806590  0.4908386520099030
  0.1663888278349902  0.1803330717268365  0.1659443000312415
  0.6569315624698483  0.8253633635129722  0.8283232478620247
  0.8118519795027880  0.6690069694750819  0.8124942622860135
  0.8321515259853556  0.8183629503104575  0.6661742013707719
  0.6491499023118364  0.8455138427161626  0.5186792943446543
  0.8327259329814996  0.4751391427460861  0.6638023231443763
  0.8248516826909685  0.8017978590110257  0.3347106564121556
  0.6688699001511980  0.8704368230131972  0.1698995120333950
  0.8395637567777192  0.6831004669834505  0.1586587683292662
  0.8088377597623788  0.8437371809866170  0.9922644786849379
  0.6570820872239830  0.4983946099787578  0.8591156409496570
  0.8257284347285001  0.3244729123463103  0.8488602007884453
  0.9040945852630640  0.5102943650644405  0.6569427181976122
  0.8375268548331180  0.6506180509435315  0.4862363110940113
  0.7828083941826665  0.3274967878569888  0.5110606284470369
  0.8388120236860640  0.4928294855292246  0.3368945811229325
  0.6799040366870810  0.4922010305108185  0.1806469916242399
  0.8371563323614016  0.3370717897334389  0.1347994004793135
  0.8351999154117491  0.5159518772194430  0.9801653620542186
  0.6651186030375297  0.1364643972981334  0.7975726357174442
  0.8421888307578426  0.9734025338601123  0.8541905098603609
  0.8157687000014467  0.1684966155795858  0.6759647880551209
  0.6515610513858681  0.1735575549765054  0.4985411631914938
  0.8286252467801005  0.9937236362931315  0.4947918498629123
  0.8121548103690945  0.1823337392295470  0.3331218064992942
  0.6795445262468666  0.1905750504892450  0.1664088397461771
  0.8414179885526984  0.0102333992192121  0.1700040858472546
  0.8270754652878255  0.1301187343877770  0.9953149195829629
  0.3460550306470360  0.8236552030970352  0.8362755540229084
  0.3512864338624830  0.5034966623094653  0.8159076681683723
  0.4926676796198711  0.8898558118296995  0.6518954831119551
  0.5174845476574688  0.6811862358309491  0.5428681527033553
  0.4981550315969210  0.5182780879034331  0.6833788406909316
  0.4940488798651808  0.8649470014261416  0.3245376850309796
  0.3321802960512462  0.8433333795079349  0.1746140582629190
  0.5122885286903043  0.6750504695283956  0.1810530400431734
  0.5225517825356332  0.8344144436994658  0.0039887279370950
  0.1877775634223656  0.3420193902252481  0.8535989370504048
  0.4714796403308911  0.3334601875267481  0.8178229519415319
  0.5125581210350550  0.6468958223541960  0.8278213907204822
  0.3356223858465432  0.5121066539547278  0.4836816007563535
  0.5423832367085433  0.3532524720655470  0.5161330859430826
  0.6332986497603615  0.5219810859230500  0.4820887832733184
  0.3268553108107368  0.4926704183535937  0.1734087671237727
  0.5107529575769162  0.3327189806416757  0.1994302178058429
  0.4729807988458355  0.5037956470618282  0.0130884845543123
  0.3488246780260337  0.1760995933808538  0.8651686955597152
  0.5064355124907302  0.9975184719859690  0.8417901526808441
  0.4893400623211626  0.1680629358683723  0.6578601580721274
  0.1575214906814821  0.1658413698477093  0.3197484229774225
  0.5020673391858969  0.0130484737584939  0.5136872408727374
  0.3991335892826992  0.1797780774847557  0.4109053112567924
  0.3529455664469899  0.1873649825782799  0.1817315957563729
  0.5001903141251250  0.0237936760450300  0.1889643547264991
  0.4824478666194014  0.1863236775920715  0.0077727135400701
  0.9969924862136915  0.8248263650356071  0.8155836229472603
  0.1583414518102287  0.6620198759724354  0.8140471206694437
  0.1692937875753399  0.8462484099940056  0.6588259375261039
  0.0044252756869950  0.8673876238786052  0.5203838515591072
  0.1546026343241726  0.6801999302741359  0.4851167680531053
  0.3288345615315921  0.8606657502964365  0.5047996812569673
  0.0157206161804657  0.8388505920075785  0.1564706736212661
  0.1644173401914897  0.6463010107114450  0.1735777127394274
  0.1679118585926513  0.8300613714525381  0.9885918004418544
  0.0094630773558450  0.4926049939311404  0.8597261609314621
  0.1848330393151580  0.2016273852168933  0.6562113897525635
  0.1949088659551971  0.5156397347088515  0.6400424886747463
  0.0077823363163704  0.4692009452440108  0.4609839819871630
  0.1897119158236041  0.3498640051957075  0.4910937100924875
  0.1528459521444296  0.4873687729519113  0.3180398577073861
  0.9982395848644400  0.4873273158921389  0.1446339846829082
  0.1267331258921383  0.3408611026470352  0.1453228439329360
  0.2191244446844546  0.5231976724915680  0.0014429574421644
  0.9999507634993169  0.1314506537678445  0.8456591003957805
  0.1715484402972716  0.1470949246610314  0.9990371042810533
  0.1717542073932613  0.0197280502086338  0.8170362394556938
  0.1540415875133067  0.0445085345143915  0.5096899544083100
  0.1540429741385969  0.8308199873067945  0.3400331720426590
  0.9917243380606378  0.1882527466473136  0.4893935253023074
  0.0145011197231088  0.1555772253233619  0.1602001895843899
  0.1578405663185247  0.9986813598770318  0.2151462086027280
