Cl O  Li
 1.0000000000000000
    11.7780000000000005    0.0000000000000000    0.0000000000000000
     0.0000000000000000   11.7780000000000005    0.0000000000000000
     0.0000000000000000    0.0000000000000000   11.7780000000000005
 Cl  O   Li 
  27  27  80
Direct
  0.6874009501515830  0.6755626031520631  0.6381369135746661
  0.6658478134358179  0.6655882936774334  0.3365641921098608
  0.6807011006324187  0.6821969877633641  0.0019568620799403
  0.6703312082173235  0.3470183194048556  0.6695879637965153
  0.6703493051955640  0.3434295307266624  0.3371276073172079
  0.6960122778153732  0.3310000442946979  0.0232109577433193
  0.6808138120136751  0.0325268908751190  0.6428156909445132
  0.6447947525035580  0.0148248199747903  0.3221936529413136
  0.6751066242606831  0.0038713193052667  0.0044020682399100
  0.3416363592305712  0.6694134766642312  0.6674115491292810
  0.3511974746114141  0.6567672515901848  0.3356588371302109
  0.3205695939870487  0.6638201338839741  0.9961167914064850
  0.3002263232617525  0.3475220388752548  0.6582371503841283
  0.3405481518969541  0.3020029564678856  0.3512525619890952
  0.3085541315997746  0.2985889028189679  0.9959421939643450
  0.3190643464457011  0.0263489463664286  0.6665969421959982
  0.3202499009475046  0.9927995980758132  0.3239907395601708
  0.3406299324250210  0.9889462650774206  0.0255477022249066
  0.9992618250224696  0.6695004798101795  0.6778329389858122
  0.9834460394297047  0.6718772972565872  0.3523581780489838
  0.0007386223908628  0.6745734231311447  0.9864290114111104
  0.9952942278059450  0.3064070605740354  0.6812554540854061
  0.0118959062131432  0.3136231597979737  0.3626515530393036
  0.0072216790238219  0.3238417582361453  0.0185594523577389
  0.9949276729044023  0.0090999084684309  0.6643070874101289
  0.9975083660190543  0.9665647032518945  0.3267181201711973
  0.0005324421381017  0.0002831682722801  0.9980242225915787
  0.8416316577408867  0.8282212217882178  0.8365855024960587
  0.8007478713730953  0.8704157637880332  0.4814639236310915
  0.8328666474609868  0.8449965943068469  0.1597287089176981
  0.8669468606893623  0.5130726695091656  0.8363407277075975
  0.8268659000005634  0.5019781692270711  0.4975171983781372
  0.8266545661607075  0.5241052271140610  0.1651499988270881
  0.8329987918390114  0.1573557020843560  0.8354187129817595
  0.8333134444450189  0.1775552192403290  0.4918189983861508
  0.8237574302258276  0.1688604106612548  0.1657959536639382
  0.5075104278044451  0.8548434557110042  0.8239012616220840
  0.5022411707307098  0.8443251842685007  0.5056357781176203
  0.4965233353149055  0.8260745234118753  0.1563063152743339
  0.5167589148497773  0.4919406620275344  0.8241488703892408
  0.4774180274545724  0.5062443597842805  0.4931115760691150
  0.4860318652137784  0.4843332915592885  0.1494568418014058
  0.5082507035250889  0.1534937887093955  0.8411565481900712
  0.4988064290373158  0.1774015163815144  0.4867605893273522
  0.5150773938335768  0.1673871061083451  0.1567305315209753
  0.1729069761502793  0.8382854088729008  0.8357905309865937
  0.1716297829230902  0.8323003697515318  0.5084018627805436
  0.1790008805389610  0.8103875606539128  0.1471959846904017
  0.1705536807270434  0.4858061102872789  0.8348179094983383
  0.1563475325655334  0.4991592511041837  0.4918368929373417
  0.1747871793157311  0.4979193854249538  0.1600217321934482
  0.1521971606447928  0.1610921815379885  0.8481792283680497
  0.1735691150297506  0.1542982034407274  0.5119913397107057
  0.1497454148259497  0.1501473254523626  0.1898500866997311
  0.6844632478359491  0.8335150939911927  0.8264366199337934
  0.8479433331496034  0.6775745255987351  0.7811072926427850
  0.8235034247639016  0.8412282123501863  0.6453758668125122
  0.6552693806741525  0.8269051220820820  0.4559273059756864
  0.8694007623562844  0.6885525493564495  0.5123969225474249
  0.8329664844818842  0.8924709195869804  0.3288946360519563
  0.6616148209147543  0.8298694637974523  0.1524692295770154
  0.8381162286254941  0.6918809358779466  0.1800004318022884
  0.8382931498669058  0.8457264652771378  0.9975419268614644
  0.6104798048683848  0.3828654778643924  0.8826303689222412
  0.8812093038133856  0.3570269605071091  0.8467966516188022
  0.7803251682735085  0.5105651651594909  0.6892280839220769
  0.6707159815533364  0.5107995351975990  0.5081026351157211
  0.8195366642985642  0.3277675879520393  0.5040975754525863
  0.8348492989562765  0.5354147454083155  0.3316039399274472
  0.6489531708995230  0.5096127054053826  0.1414389695191337
  0.8504909180551129  0.3415339633481407  0.1862446990034651
  0.8170837342814807  0.5325167997652367  0.9898600879097365
  0.6745635529718279  0.1603621486260579  0.8174328267061027
  0.8290786705659181  0.0102753580649486  0.7978667948807200
  0.8218031994883115  0.1863408568365902  0.6856428579599581
  0.6640149174718740  0.2109229702246855  0.4970664338239316
  0.8422018542543976  0.0239233768954461  0.5017943604814387
  0.8454223066730107  0.2034500922882405  0.3272014552376948
  0.6694528772488044  0.1717312310796776  0.1937352488213463
  0.8227426229404211  0.0059048941715314  0.1665357739237203
  0.8220262740970482  0.1508566601984644  0.9924611382271555
  0.3305832147947243  0.8036966179249337  0.8011077329167600
  0.4959489283187614  0.6987581114926221  0.8633623906847929
  0.5329179779729806  0.8208429987401984  0.6571039232746646
  0.3439478332253454  0.8176728292007235  0.5342251981091015
  0.4961284406264089  0.6782877570655430  0.4667896629172193
  0.4745400006331814  0.8369785398402300  0.3078707448575539
  0.3480664139779352  0.7802482781993365  0.1448362116015763
  0.4940483407494079  0.6507305935711499  0.1699795438635297
  0.5376204797930491  0.8422440722562514  0.9808454332056619
  0.3406488795968701  0.4838345113089012  0.8080055560905018
  0.3560572217636664  0.1737731127297009  0.8248706442775446
  0.5287064022337721  0.5277884682536302  0.6726191469236867
  0.3247314131574482  0.4859854606532867  0.5054789781249456
  0.4868067964453259  0.3293550208755530  0.4593742337774706
  0.4813532497855710  0.4756534220964800  0.3165170924009371
  0.3351066496466547  0.4755180388856605  0.1623565561484017
  0.4590791893751105  0.3100496543620307  0.1185517575752221
  0.4627741712835605  0.5021240786444733  0.9709097240390662
  0.1268165231525110  0.1466676247112368  0.9899883644230307
  0.4855773355164490  0.0025273646882195  0.8780949503889705
  0.5131336488172336  0.1489989972849935  0.6816399035381397
  0.3440374274375294  0.1625985424281093  0.5330871127504457
  0.5369793933267436  0.0236726026753003  0.4616236436388158
  0.5012893587431606  0.1681142949202279  0.3149739302731862
  0.2976290830009590  0.1300901448763653  0.1556787003281840
  0.4639520133147716  0.9947459126505181  0.1696957512612446
  0.5216157470525143  0.1724099284918118  0.9947780695286718
  0.0047780821588971  0.8548167353404476  0.8392049085187909
  0.1453328695118287  0.6646817038927804  0.8256128228124555
  0.1501268481156433  0.8522943323599171  0.6703024907964410
  0.0198964304972586  0.8357780664648659  0.4766736089568760
  0.1424441342995102  0.6514592499791428  0.5387922762329408
  0.2247396570233373  0.8172373681314730  0.3382851661580419
  0.0019866820956588  0.8478470910494829  0.1742526169404279
  0.1579945296484126  0.6503343628641254  0.1504696653017257
  0.1599786588611650  0.8205361193328984  0.0001041876490016
  0.0215290097135250  0.4772550249134707  0.8427383941270142
  0.1631560955317232  0.3074900250470660  0.8346843076455560
  0.1548739243720492  0.4638892121632566  0.6631562491473438
  0.9878247832220378  0.4920090418849131  0.4561456033060509
  0.1431923755245586  0.3327642365179836  0.5024657300343750
  0.1779874497574921  0.5186523282208650  0.3134278127105102
  0.9976328331930742  0.5288290647451650  0.1129912484624214
  0.1651467530168275  0.3356811090902064  0.1504040283308701
  0.1740418024334354  0.4770775773617297  0.0010159236669540
  0.0016616263207597  0.1292560745822567  0.8399700827665443
  0.1848262452035502  0.9990518998912543  0.8674978943387355
  0.1370164881807605  0.1450595239859518  0.6822340674143319
  0.0010661809864557  0.1776643274201013  0.5071407827465082
  0.1796737480520647  0.0044646706266296  0.5128150153758135
  0.1764083163430149  0.2031193669744892  0.3588600134281609
  0.9913047344666376  0.1583280806601518  0.1579353469565549
  0.1613461649165645  0.9763224689204776  0.1806366802621068
