Cl O  Li
 1.0000000000000000
    11.7780000000000005    0.0000000000000000    0.0000000000000000
     0.0000000000000000   11.7780000000000005    0.0000000000000000
     0.0000000000000000    0.0000000000000000   11.7780000000000005
 Cl  O   Li 
  27  27  80
Direct
  0.6723593056146784  0.6405323983416268  0.6647340899368349
  0.6633633260711049  0.6599826418945979  0.3165878233202234
  0.6827971325476428  0.6742954893539891  0.9772461566537511
  0.6745220362133547  0.3403029220503181  0.6937189714125520
  0.6747535722727676  0.3342104144082792  0.3261570357830531
  0.6439681021902340  0.3486321068922780  0.0119258879537825
  0.6408115357484967  0.9815659657141840  0.6645775328566199
  0.6530576030307551  0.0012537240411090  0.3327799630233428
  0.6879672813378593  0.0111987212882157  0.0243000940888203
  0.3456734641250830  0.6433822068322939  0.6742979988109631
  0.3187944110043801  0.6571874077365220  0.3356488806274988
  0.3411613247025244  0.6643616248038836  0.0111327155147217
  0.3318365024167615  0.3207461816265155  0.6746912740830625
  0.3059151114253433  0.3074904689486169  0.3451370008142304
  0.3270993855711994  0.3641408528757108  0.0121742267234870
  0.3555759524824897  0.0079779222132799  0.6556578278253622
  0.3239685678501802  0.0099474931256539  0.3447231994392946
  0.3350967924787498  0.0107441966515624  0.9977834358356433
  0.9836775006083879  0.6445258791775206  0.6535848128950996
  0.0132255923340642  0.6500553764663116  0.3722536830485412
  0.0020075666381691  0.6908555604625889  0.9770072244160111
  0.0049262952134035  0.3368295167904371  0.6528668041499195
  0.9983278883728204  0.3554197692655893  0.3496103552140723
  0.9761658047548305  0.3144664694489415  0.0033811806135001
  0.0038718894015742  0.9950918005263772  0.6697664263916362
  0.0090013358053630  0.9985458249777137  0.3364344190364489
  0.0275537761728059  0.0076685131004436  0.9725189916280185
  0.8384999706129679  0.8602879726863853  0.8207573295363779
  0.8279429951185674  0.8275684740858930  0.4899799515480288
  0.8494548367161999  0.8457263423829495  0.1651498195508750
  0.8350802490066592  0.5222105894620096  0.8403124303010783
  0.8143300189407060  0.4720074665815018  0.4955942252852218
  0.8511720658639622  0.5074340221172339  0.1428680972765845
  0.8351340136310518  0.1725353710965342  0.8228113972947914
  0.8155928398473687  0.1692549597858087  0.5101743979064075
  0.8220609508800706  0.1578151796850916  0.1670074419789360
  0.5231946183412411  0.8531348485175996  0.8423664980594917
  0.5040796344679338  0.7968262829065788  0.4941911629185478
  0.5058257701983890  0.8747590776132087  0.1746877165491207
  0.4998515001960623  0.4842434529966866  0.8401244160573446
  0.4948301352873533  0.4907528186621113  0.4825869918107935
  0.5110217891655534  0.4975351369613114  0.1635988943457693
  0.5076220673517523  0.1674099080775322  0.8407294300233988
  0.5000059520349607  0.1680944657527544  0.5226732965737040
  0.4921866404457102  0.1803856945097942  0.1444380202603017
  0.1840302828309562  0.8339489746914975  0.8268920027328631
  0.1485181715026809  0.8323616227388037  0.5079881857699692
  0.1677034582903387  0.8343951239089706  0.1577533679470330
  0.1574154577381877  0.4972720627675600  0.8542876699270294
  0.1725750777890543  0.4948516020492435  0.5110796111871226
  0.1548521543722714  0.4962137336664744  0.1859698667062595
  0.1643902537975667  0.1705856139968157  0.8216977246383258
  0.1649351975366313  0.1639595288945511  0.4842240193614765
  0.1602148416507818  0.1570182243905401  0.1393580223566557
  0.6817414349982026  0.8107061389067255  0.8208243733752288
  0.8403454575394012  0.6850141635756658  0.8266307908679689
  0.8443201531450854  0.8202956750453418  0.6632068183324832
  0.6601538047131739  0.8187457316114271  0.4705773998079599
  0.8292867868450980  0.6325796468412336  0.4962418703879366
  0.8188085149876095  0.8352632930395962  0.3265854119055651
  0.6690593398509547  0.8445997143953052  0.1512038913617161
  0.8304547099508754  0.6718276607060498  0.1444804692126176
  0.8475866779602036  0.8738766576182864  0.9963718052696535
  0.6761617358010933  0.4871725724054145  0.8497320896596117
  0.8199398392828063  0.3545305072363881  0.8433208201424569
  0.8193336917252739  0.4932622663114630  0.6508529788889803
  0.6686414899350256  0.5041746227342642  0.4931793920388861
  0.7862417273533882  0.3226727001009317  0.5223215998176068
  0.8512880160780133  0.4887653898884493  0.3405565220197030
  0.6833602036290053  0.4699947749120409  0.1749635234042963
  0.8308845030627352  0.3272584217560455  0.1363701889821710
  0.8392068458704161  0.5234796046363921  0.9900358968127532
  0.6843937151738017  0.1669531618040088  0.8066740748367227
  0.8086641667912570  0.0247261201656599  0.8071304263774992
  0.8676988579655963  0.1822968285284355  0.6618877631914222
  0.6445931969196157  0.1164688070233942  0.5330342417132037
  0.8252358167270980  0.9887085712674014  0.4735782188776809
  0.8281744097217504  0.1774621823303423  0.3498831054207980
  0.6532144435088397  0.1731156079917088  0.1739280888025282
  0.8272385489857151  0.0023864676978455  0.1960818265746648
  0.8241822244189747  0.1661216825761360  0.9870458626766878
  0.3501481140580429  0.8711254311008089  0.8678823466996008
  0.4971139172617325  0.6469837889000259  0.8501406684166660
  0.4939798607079185  0.8182979629775565  0.6567301243928753
  0.3290913284680691  0.8426667789834142  0.4848871703761959
  0.4436489253882490  0.6516331333768512  0.4861245259600101
  0.4787062539853827  0.0348732059449469  0.2047903192222967
  0.3314425388926935  0.8757933988662036  0.1791346137335706
  0.4831716732448775  0.7004850961862202  0.1620112893592634
  0.5426285867594188  0.8188441921283868  0.9862050376449656
  0.3260601250981926  0.4759093289347147  0.8422662561844950
  0.5367390932054943  0.3222777649270251  0.8425392897890902
  0.5013546020106835  0.5011640871661590  0.6806779731062387
  0.3397161170241090  0.4543978921911817  0.5059910000125131
  0.4945525673168455  0.3167718301468155  0.4693865214747501
  0.5244760220510636  0.5012691468049378  0.3317762082548482
  0.3166613359684803  0.4981664259584130  0.1836464292728499
  0.4976849234834422  0.3295252605863673  0.1795828277069504
  0.4983534995430930  0.4655730798952748  0.9990884945695347
  0.3532653286813243  0.1924285655195937  0.8638255466825703
  0.5081903205655867  0.0045953554593539  0.8322542143078069
  0.4853856583725304  0.1905361560030468  0.6776461017270983
  0.3410330669238534  0.1898750292588239  0.4954118789988788
  0.4963946939542543  0.8667442014941844  0.3179188418999200
  0.4893103544969463  0.0739883418765957  0.4129847989354712
  0.1528597155291300  0.1493820586744786  0.9854426277916093
  0.3238827995092349  0.1706326175577492  0.1454192347768156
  0.5432042892886810  0.1781273373728536  0.9899289647237648
  0.0061761272619071  0.8401970070357982  0.8236662872109586
  0.1621461778889803  0.6690662318652688  0.7995005460213300
  0.2232909483863767  0.8332336784687829  0.6526768061210990
  0.9806510593348550  0.8151085223829528  0.4903326199539641
  0.1662102450370940  0.6493560719805210  0.5191562075565040
  0.1677878501273462  0.8040786773005230  0.3200637589182254
  0.0008710232043057  0.8478451867972576  0.1509688330716391
  0.1587204037138866  0.6661508774959185  0.1625611621969875
  0.1783254837171505  0.8144150882816028  0.9773988777413749
  0.9969975515611014  0.5169777692572151  0.8110231795134770
  0.1531179618377468  0.3432485999917090  0.8493730650443164
  0.1543683739662646  0.4905518086017889  0.6876834064995853
  0.9982355193285946  0.4820759856050479  0.5031823651837490
  0.1566798479610386  0.3318645683004711  0.5120317065725414
  0.1588756348969262  0.4902362653167630  0.3408042117576795
  0.0063478075404860  0.4936627075011206  0.2035317492836772
  0.1566003244945757  0.2938910553830835  0.1908207880391462
  0.1612930086027353  0.5199102894403773  0.0190108245708871
  0.9799958080357487  0.1525038177850251  0.8566084555660883
  0.1815371305591031  0.9978921652612855  0.7859176909884595
  0.1644885017661241  0.1813636803148659  0.6631533775913703
  0.0030551108055992  0.1500434080884561  0.4926436486092290
  0.1502336294137585  0.9819514538707160  0.5118941776349955
  0.1611502671686603  0.1294787833843455  0.3010795631617099
  0.9872116997719612  0.1603208318272619  0.1527905854264985
  0.1395353800813934  0.9845834938716861  0.1174713567125015
