Cl O  Li
 1.0000000000000000
    11.7780000000000005    0.0000000000000000    0.0000000000000000
     0.0000000000000000   11.7780000000000005    0.0000000000000000
     0.0000000000000000    0.0000000000000000   11.7780000000000005
 Cl  O   Li 
  27  27  80
Direct
  0.6719688013322556  0.6906814580149152  0.6762485559338939
  0.6423435621276119  0.6526754960414656  0.3753545116385180
  0.6679113940340761  0.6576904237699952  0.9918102943260465
  0.6544522624139640  0.3201608486274367  0.6496587913098746
  0.6660643686620653  0.3398389440675166  0.3251024621401049
  0.6569587546283904  0.3239974484998360  0.9792930235062389
  0.6562395718063221  0.9861801207758334  0.6519325329025901
  0.6710210783711097  0.9817601729575398  0.3234211233082491
  0.6825697844672542  0.0052775374604442  0.0394139356987701
  0.3196952495999185  0.6655121239984317  0.6689006564579154
  0.3560240224960307  0.6638321819132188  0.3512203490686380
  0.3256231435651656  0.6589106135399971  0.9795674045158833
  0.3353632247006219  0.3251471126857330  0.6803367726290332
  0.3316927364651818  0.3457805423440265  0.3612506093797964
  0.3297682220185574  0.3306720148804966  0.0039730799571478
  0.3430546428798907  0.0397780110681015  0.6800936982277893
  0.3177883260639103  0.0101455471155380  0.3331331682973260
  0.3071210885555546  0.0018823712041375  0.0309145906788575
  0.0024124055086227  0.6602625023485147  0.6278146454675038
  0.9958137293451759  0.6910278511823108  0.3186620026423878
  0.0062716914437370  0.7061572488746618  0.9769245840093495
  0.0118701170406945  0.3104390264118608  0.6804269741223663
  0.0061237798962966  0.3231655947819213  0.3371142808404849
  0.9972133457076215  0.3156827979200424  0.9772289457302191
  0.9987755940176721  0.9964882479536902  0.6744043240551687
  0.0127381052521444  0.0086589196998374  0.3356331828461629
  0.9949118010759261  0.0055097671487944  0.0201052088962234
  0.8283271386698228  0.8233553852015595  0.8284801749514745
  0.8458263903180727  0.8414308252039907  0.4970015896630675
  0.8397947929752794  0.8225741787314724  0.1564323092145465
  0.8494598748888328  0.5235290626223741  0.8125519191503052
  0.8452068825752619  0.4908586728241316  0.4932377420723197
  0.8462380459662820  0.5144935288332950  0.1477436949031922
  0.8263374427132044  0.1765091405955377  0.8221144110350858
  0.8425920109184420  0.1570661338095921  0.4843292919850236
  0.8261288618812243  0.1956918768023697  0.1791472354964838
  0.5121790421049091  0.8481351281182479  0.8297784610772393
  0.4960991684435369  0.8342385921292085  0.4900950621261898
  0.4899982600789365  0.8470226700240802  0.1697135175793509
  0.5103558221539395  0.5091846365432345  0.8289512631814668
  0.4784369225348926  0.4977502612447436  0.5164418333197850
  0.5082287187160051  0.4981911473589253  0.1659409048973524
  0.4886030113963798  0.1624094184553917  0.8506493376647958
  0.4970798465283691  0.1518920174492019  0.4899742536629467
  0.4935425148062021  0.1905356347504653  0.1720351432906660
  0.1733841562029772  0.8359440805080897  0.8262699954523552
  0.1764063313264383  0.8335328504632381  0.5082037811355866
  0.1687138807692161  0.7971953327185801  0.1764028712559899
  0.1781417789086709  0.4897038669911730  0.8173274161644847
  0.1577693485668697  0.4966811225392054  0.5083192050393087
  0.1722872040208143  0.4872217469935269  0.1427430180389594
  0.1598271612257020  0.1457376177367264  0.8605052678007784
  0.1567054628432705  0.1401200646813286  0.5046196887649459
  0.1705391249906823  0.1716800813840153  0.1710509024897595
  0.6674204679532160  0.8345546212391536  0.8375374089202781
  0.8359315941885536  0.6674550593065763  0.8075250887112551
  0.8304943226635919  0.8316180525149978  0.6532281469912994
  0.6778712907027691  0.8356742047654694  0.5095412976235775
  0.8672556416794395  0.6937731668299381  0.4864466384391639
  0.8419218154423940  0.9019365132628732  0.2835883584250507
  0.6762097289936662  0.8535293231670396  0.1645507573764472
  0.8488262782233652  0.6785441345437397  0.1389479258330950
  0.8283109445058493  0.8311177338190329  0.9777995369764771
  0.6914241055614686  0.5374804968272840  0.8225293055160898
  0.8287861622476549  0.3423656789869100  0.8456388633313590
  0.8734324197022563  0.5229895135641831  0.6616065620917390
  0.6783329863176570  0.5066844195673478  0.5136997565049526
  0.8244124424416607  0.3137228384970207  0.5114516826621350
  0.8218464771600412  0.5599943523207840  0.3259317450344888
  0.6750277169652319  0.4875587475458179  0.1606106464321991
  0.8406354320271500  0.3570584415331223  0.1923982113814199
  0.8434398563732809  0.5254401359129005  0.9891589990845613
  0.6465628300947076  0.1554744701607403  0.8035045636215252
  0.8365540978516992  0.9999771255985959  0.8205173425840078
  0.8464559384425469  0.1730539335274220  0.6659963546054770
  0.6737528718918190  0.1654164925209476  0.4629829142577916
  0.8105414122608797  0.9914902390147137  0.4653247927954262
  0.8647678132389929  0.1555237409046301  0.3205604242423098
  0.6737187022058347  0.1874450190415106  0.1558480237783784
  0.0001876228690035  0.8202322498299880  0.1725677895864632
  0.8127035760638170  0.1641442688778278  0.9943663008294068
  0.3164674895648122  0.7930608007144764  0.8237237870507835
  0.5140964716047951  0.6826672901476520  0.8410785867563887
  0.5016161962260683  0.8296434981016949  0.6555892156132426
  0.3507026606997104  0.8385354706271477  0.4660674571552563
  0.4973738920607200  0.6726311594520532  0.5104539602197206
  0.5433724026925282  0.8343552710806382  0.3108336830494269
  0.3381732967614385  0.8270575330275680  0.2023660027050502
  0.4931480654572148  0.6570112405329416  0.1779943324777921
  0.5110194589935783  0.8302666495313995  0.9987857685160419
  0.3529459167787457  0.5014705870198123  0.7865479784080315
  0.5186632258453548  0.3199469642067551  0.8460727049842122
  0.5014596391458533  0.5126188924117092  0.6852316206316986
  0.3173448691261978  0.5024245447340882  0.5360829655805952
  0.5008644226490031  0.3196571089143324  0.4824399998450417
  0.4710265540713857  0.4901739026005072  0.3386810054768174
  0.3398105874672860  0.4749829265996467  0.1752805144790935
  0.4846900155554349  0.3522037955425215  0.2018292876255546
  0.4803293725368493  0.5045189764462058  0.9945142990409277
  0.3385120786717666  0.1273691443371927  0.8482524394550610
  0.4978935222972234  0.9923637642385565  0.8262690238025168
  0.4878505495673456  0.1839631928163633  0.6503796340337503
  0.3381785193793200  0.1477592769244876  0.5114750832290770
  0.4882180356333170  0.9813686145198556  0.5006564910156830
  0.4900091101687989  0.1690068803728330  0.3336973324847569
  0.3240228160385879  0.2172607623425991  0.1707798121848412
  0.4769094080180813  0.0244965349940097  0.1829454552002656
  0.5243589562273352  0.1844126011093361  0.0194449563838213
  0.0058757580514418  0.8302941796101546  0.8373796777631750
  0.1741371038569304  0.8092874339868595  0.9959529313928237
  0.1864716722453046  0.8444845587044953  0.6666084130328599
  0.0114895276187643  0.8566237849899380  0.5241039400622617
  0.1684652396241061  0.6611994966760281  0.4952453730655388
  0.1741831155253205  0.6435769264691191  0.1879822248074546
  0.1592466308113054  0.0132449131233868  0.1591044272410130
  0.1802285791210160  0.4598071326275116  0.3102846604053114
  0.1657825144202369  0.8453033356350014  0.3317931619566243
  0.9996738358214989  0.5429069992332031  0.8643219083660802
  0.1717672701437364  0.3323181921338247  0.8286539383309114
  0.1518451387739266  0.5271783365030086  0.6782496282907037
  0.9976608679498176  0.4735493382338824  0.5227457355297946
  0.1307773006670408  0.3104776494929378  0.5353312324889399
  0.1326242653109367  0.3485403922538200  0.1205727622195698
  0.0029545538566483  0.5255236977990044  0.1794831631854115
  0.2020710650615797  0.5137805807643566  0.9711575107440509
  0.1437379050705775  0.6817990400462066  0.8427221428223360
  0.9927418912754162  0.1484073572453593  0.8773230690290182
  0.1483375941921186  0.9932476777655548  0.8506004312895956
  0.1558878498683001  0.1355820247177646  0.6863069131195467
  0.0013306287130476  0.1673152582468540  0.4886530527951592
  0.1810672748732096  0.9848076426060264  0.4912613658155697
  0.1665847935461948  0.1828690543701909  0.3286833561633608
  0.0018222724610573  0.1881693637533455  0.1809426622135336
  0.1987942771950433  0.1642434075254038  0.0179813278438858
