Cl O  Li
 1.0000000000000000
    11.7780000000000005    0.0000000000000000    0.0000000000000000
     0.0000000000000000   11.7780000000000005    0.0000000000000000
     0.0000000000000000    0.0000000000000000   11.7780000000000005
 Cl  O   Li 
  27  27  80
Direct
  0.6548823076839749  0.6833432718802553  0.6616588499621888
  0.6478660242007660  0.6961860536195316  0.3374971320830462
  0.6675458200280633  0.6631297164083878  0.9907069179463303
  0.6677097859382960  0.3442009199475646  0.6526552996469576
  0.6970399674753408  0.3345032270363094  0.3182734043986560
  0.7066385723457823  0.3421472570432504  0.9573670120678250
  0.6631501976152946  0.9966354095780273  0.6651518501604780
  0.6638103527096790  0.9956741208416308  0.3214121977454322
  0.6386080230840995  0.9975083468145494  0.0111426345748726
  0.3321768500001597  0.6431696805735272  0.6589567322469613
  0.3015990700705878  0.6409066271290343  0.3129400184355852
  0.3617693162654619  0.6427868505371910  0.0075066399086964
  0.3329632183600135  0.3162284976034779  0.6780536596274379
  0.3409896937918965  0.3591668780400117  0.3379286255821232
  0.3085885319697153  0.3250443170728450  0.9998507294898396
  0.3244878407027817  0.9847067890276462  0.6599146575314104
  0.3241095045469481  0.9975579385950881  0.3317289328172838
  0.3310318821218151  0.9765988202610731  0.9961555351911334
  0.9886411795275595  0.6883137466286773  0.6737046764069136
  0.9868405327229662  0.6711733576540830  0.3706983058482289
  0.0168946806862965  0.6698370962138001  0.0041614443510621
  0.9874996933944692  0.3286678422327615  0.6477351887484937
  0.0204114584719075  0.3092283475561278  0.3383416172488603
  0.0003560288898898  0.3400128257461179  0.0219776069320922
  0.9941170007537925  0.0109489889377197  0.6624588821478954
  0.0054433432662123  0.0048260356348259  0.3328159863167178
  0.0157241956131719  0.9902743470298672  0.0073361887418598
  0.8424183782409265  0.8375063688349691  0.8453116004836774
  0.8175641421699597  0.8458257966931347  0.5087303150980038
  0.8299767259432768  0.8340230041642441  0.1580657041632078
  0.8501244521385916  0.5091058082930275  0.8252063029979733
  0.8160392996902039  0.5150122652337145  0.5130559382369964
  0.8358041148783626  0.5154878473442096  0.1639117062655109
  0.8410412265366102  0.1808813187988889  0.8502387558434698
  0.8179015475763499  0.1546131601500332  0.4867008675343648
  0.8241317663402795  0.1653884532175028  0.1635151719179119
  0.5164690878142613  0.8427642899939226  0.8308812238792476
  0.4931560503286634  0.8534789966454259  0.5211588096374250
  0.4870277738269477  0.8312648141562579  0.1735710594935586
  0.5124773073655846  0.4857481558856824  0.8460809852140637
  0.4790481400143584  0.4937591254055606  0.5175021674121826
  0.5098651887166403  0.4671637333095606  0.1701434634750179
  0.4941363235593963  0.1658587114965917  0.8406277624375884
  0.5073086565355356  0.1823592386885311  0.5127411641747592
  0.4941971326451172  0.1821086340010394  0.1754704325006141
  0.1795149115603903  0.8263851886677280  0.8267563274027081
  0.1778581271296596  0.8397283700737890  0.4973212431807218
  0.1616604004399693  0.8209826536244900  0.1639764120719379
  0.1639433929488548  0.4996260281007422  0.8246699522871671
  0.1596388019803229  0.4947682242481666  0.4993862015144074
  0.1617415939295920  0.4951527141863101  0.1743600796477631
  0.1764240326962710  0.1760819556355532  0.8245735160407044
  0.1833636368130648  0.1792611129360336  0.4819834670834405
  0.1862727159438753  0.1528867205715109  0.1459286438471968
  0.6652864507558742  0.8129853276877592  0.8246783732524335
  0.8314521762229129  0.6659309424071341  0.8252484887951247
  0.8566543439068529  0.8785323399624484  0.6712445399868615
  0.6547719444564948  0.8382916238460496  0.5444748025579480
  0.8244239900291835  0.6772104205272172  0.5229366049584485
  0.8155201957640297  0.8394883725636998  0.3396393568215910
  0.6799343149824696  0.8449963316144061  0.1740081804646164
  0.8039055794205127  0.6684105523093642  0.1387933231374294
  0.8657422658163868  0.8505549783983498  0.0057580491176795
  0.7032024946338606  0.4923123792815677  0.8268066912526660
  0.8489197682805942  0.3154084453825590  0.7972387389030787
  0.8172313521003018  0.4832902461631768  0.6646282928392109
  0.6545867641914563  0.5261513804375564  0.5246868702007169
  0.7955825888462725  0.3322683109517205  0.4802676549250259
  0.8353271967493396  0.5389269563963420  0.3616610716719327
  0.6902436007388935  0.4794666825927763  0.1794391767510381
  0.8448394057549821  0.3349843758906704  0.1679156627012250
  0.8490536130458364  0.4871361576798609  0.9851701547916250
  0.6670273233830379  0.1715175495487696  0.8579231295614104
  0.8064104927039516  0.9926877727756230  0.8320417786404167
  0.9974745023679652  0.1587694226979192  0.8246529484149948
  0.6766095316624563  0.1484450358835900  0.5278443678068827
  0.8645179870199813  0.9958830824894982  0.4815993010285763
  0.8368343875903642  0.1574063194308500  0.3156152133532067
  0.6626439680494793  0.1445018278054818  0.1598656956102277
  0.8206699399076396  0.0175581043273767  0.1457943031356832
  0.8288772231802882  0.1795786804915562  0.0090081406518716
  0.3709750507179037  0.8014761353517105  0.8300123260112432
  0.5026147376223730  0.6544004547454597  0.8525137119984834
  0.4850578752357871  0.8921138994622010  0.6755085038465247
  0.3192674090334271  0.8273113329053789  0.5230279805286696
  0.4894763314197585  0.6725958530175253  0.5190806935455107
  0.4863056355699543  0.8475877217334643  0.3266617586672345
  0.3324257745431392  0.8470159058035558  0.1468232803145668
  0.5170568549956837  0.6529214012643395  0.1529828722808664
  0.5244491264809500  0.8174772648907609  0.0169078189427639
  0.3364292552752865  0.4907438935299031  0.8664002076058591
  0.5032825444592350  0.3288535285654240  0.8555914938324891
  0.5193732682104697  0.4885837539974625  0.6839689019020809
  0.3395204580226853  0.4977554807055596  0.4996049036988711
  0.5196869896520484  0.3413191684684597  0.5048265499305240
  0.5190299114488189  0.4919643262123647  0.3331606588541912
  0.3354161483770972  0.4512104575250520  0.1721940494881770
  0.5346047296212642  0.3264954356211108  0.1811942395143837
  0.5203976705380305  0.5281420075586033  0.0120881004744147
  0.3309928541866387  0.1601899039122174  0.8133367905135114
  0.5147840040819865  0.0070422493577788  0.8661786714427002
  0.5239954874626389  0.1606218225080987  0.6707146669416449
  0.3462463194177323  0.1909326112805081  0.4820356932622553
  0.4686733083792512  0.0094976970612927  0.4739990155070689
  0.5249092836502601  0.1767347626280346  0.3524099530749549
  0.3287022706633906  0.1934643663907334  0.1565025624856545
  0.4867571693469485  0.0043705096168613  0.1853084073572908
  0.4388164116589649  0.1432873262355755  0.9996798068893817
  0.9997044684052253  0.8161725010994066  0.8474980555325750
  0.1612103241377326  0.6514193520703766  0.8277146170558468
  0.1546342891234989  0.8274841246349774  0.6544739042611947
  0.0097017688483133  0.8519922104510083  0.4788186011326667
  0.1812907635817370  0.6670410523475254  0.4963779736146685
  0.1726240518771570  0.8099277075879008  0.3314058390033053
  0.9847231559047684  0.7866401759105616  0.1741238270380930
  0.1886808083694570  0.6712576482775657  0.1561995494350032
  0.1862910153491655  0.7959942489050017  0.9673265367768143
  0.0029839982094078  0.4761008470670900  0.8241047759644881
  0.1681067100794218  0.3372071058668691  0.8430742147890824
  0.1547048754357189  0.5222226762575571  0.6596892347688978
  0.9914629164471135  0.4999095879119202  0.5063356031004053
  0.1418448975185732  0.3345140163980568  0.4925574869354230
  0.1636393981270126  0.5102439341370931  0.3197637937945577
  0.0056199836400927  0.4826133705944896  0.1511172641056959
  0.1572776017807974  0.3310639509770026  0.1564526136111484
  0.1400447947366760  0.4913294340137792  0.9927369557161942
  0.1629816519145192  0.1730950635468495  0.9856912776847073
  0.1915703937753842  0.9882769151970288  0.8288212452509839
  0.2037366035865477  0.1944042149396471  0.6547958442409901
  0.9845066993953870  0.1574576549306464  0.5046897092449468
  0.1857652515730571  0.9970166334822413  0.4855097058032855
  0.1872506410208321  0.1932773642822480  0.3230134766791433
  0.0220442730096191  0.1544624228474963  0.1768012081678509
  0.1707504478335246  0.9935981201123856  0.1630440938092719
