Cl O  Li
 1.0000000000000000
    11.7780000000000005    0.0000000000000000    0.0000000000000000
     0.0000000000000000   11.7780000000000005    0.0000000000000000
     0.0000000000000000    0.0000000000000000   11.7780000000000005
 Cl  O   Li 
  27  27  80
Direct
  0.6919977417914349  0.6682270239948972  0.6977689848313804
  0.6471584094168583  0.6773446217099125  0.3269059093612699
  0.6889393119833777  0.6738297189048490  0.0287670287894876
  0.6817601152105943  0.3520590086082959  0.6420697246398672
  0.6507774406962720  0.3374921961723885  0.3265825321494217
  0.6727908965229871  0.3500890290463154  0.0080067134283691
  0.6381273290228718  0.9984752052556587  0.6630150134108825
  0.6492622337440807  0.9924644276930704  0.3371277466322362
  0.6545816522407242  0.9826154211947712  0.0368939788874745
  0.3449434476515644  0.6893800838896942  0.6596724165104985
  0.3407060017354081  0.6622395962343420  0.3425206866333199
  0.3507976379280265  0.6685035798301566  0.0076327718372670
  0.3246772409040776  0.3332061880070163  0.6752753315574378
  0.3164470024039965  0.3307029346253847  0.3282354299807987
  0.3326023408694858  0.3361857522365220  0.0021341974943587
  0.3285073226254775  0.0299375403110886  0.6552139607415122
  0.3241806266231216  0.0050658815969904  0.3478248826158281
  0.3368174185966535  0.0135492728350509  0.9963923937669968
  0.0190161850834104  0.6188705724923398  0.6536672561403922
  0.0080934036675510  0.6581887070871617  0.3607665702115732
  0.0056592278840348  0.6578248647080847  0.9700405176162428
  0.0080685247505620  0.3300346419636035  0.6611542634849041
  0.0187913088739317  0.3294422594454486  0.3307885006593543
  0.9862699079145847  0.3255808015313499  0.9890452230283970
  0.9685744424619204  0.9872485386132271  0.6347711768785982
  0.9928342306262413  0.9998845047476548  0.3474716069287437
  0.9663204906436483  0.0281615491211452  0.0002467094854570
  0.8515900941599429  0.8426675623983543  0.8271705573038761
  0.8141261103692802  0.8137744208615478  0.5145463513050313
  0.8523987497379656  0.8358277953024578  0.1838903080902544
  0.8397827672651399  0.4862076978226075  0.8346705604649769
  0.8369814198101637  0.5021327552763921  0.4817890393316605
  0.8480260825526297  0.5238070648240898  0.1572999361850861
  0.8157597776309385  0.1655556196452369  0.8252690385700943
  0.8344629034289870  0.1532444214597471  0.4811086820177188
  0.8354424074369311  0.1663833033659284  0.1739445205869234
  0.5018744106272385  0.8333306552177262  0.8417715394257680
  0.4968883894814018  0.8345432742160706  0.4875697890745023
  0.4777858346289443  0.8444573414007183  0.1787998548294930
  0.5096479737032638  0.4966224885573194  0.8169232142246515
  0.5087739746736076  0.5141497561092436  0.5032487357212977
  0.5043993237031849  0.4944842111462432  0.1674082017598350
  0.5058632356409898  0.1705508714645385  0.8073386982768667
  0.5089874947255997  0.1738118700212005  0.4870328310825471
  0.4922142679336970  0.1610750082356643  0.1790368361765418
  0.1574757367092864  0.8325377889495781  0.8251477442819317
  0.1613138649059107  0.8288171797766398  0.5017576175880171
  0.1622526709555187  0.8188195507058882  0.1822476530675907
  0.1720129543105320  0.4865687871938092  0.8337138092574157
  0.1924096657769412  0.4835175637887204  0.5129927236988125
  0.1664107857109092  0.5112422154240106  0.1678462437739688
  0.1472749012447234  0.1514963626723200  0.8312281670291055
  0.1774330600216815  0.1657587855536383  0.4914827444300371
  0.1797092509816980  0.1720117267538934  0.1747730747439284
  0.6823373561854337  0.8283133793354206  0.8535531175998530
  0.8455259465475627  0.6697846191712895  0.8136793612390965
  0.8648055036122521  0.8279715205339374  0.6736420691498787
  0.6561897327233043  0.8203626925909341  0.5302530304576316
  0.6705401101577042  0.4873962684874511  0.4624219932961037
  0.8290791536159583  0.8033972005872545  0.3526223227221920
  0.6652638895934603  0.8294957152471342  0.1747572449486443
  0.8598274985775823  0.6732309396919246  0.2079566778411999
  0.8536558217164174  0.8308565108458371  0.0032313925889812
  0.6721301341474537  0.4830375687685424  0.8221503664720553
  0.8363078235596811  0.3331356421802064  0.8344093486000826
  0.8377458653205383  0.4682263054274533  0.6731884301315677
  0.8479068125349638  0.3300476985083072  0.4954774398282289
  0.9891236470426098  0.1353330080956638  0.4994790177461094
  0.8316997742009887  0.5164475460354599  0.3255303568306459
  0.6890057080556696  0.5033401516568549  0.1665237271303585
  0.8436504194469586  0.3714501434627633  0.1340164328060352
  0.8164344265020794  0.5453674889136428  0.9777781372392608
  0.6529596852625367  0.1504542682206178  0.7973669798684728
  0.8174473714586291  0.9949989506769076  0.8182341317983157
  0.8265642809216758  0.1515279817774785  0.6421932051401660
  0.6600830931404311  0.1232771513906280  0.4903270884034701
  0.8357485581068523  0.9874990926939564  0.4831715755954980
  0.8516731702211275  0.1831607811258741  0.3297922356916974
  0.6816227077292780  0.1503946736971949  0.1693373821499544
  0.8254374909923914  0.9949097021721693  0.1549096674612279
  0.7960543140537432  0.1714428257735003  0.9845527342116850
  0.3057988740091297  0.8391054940907177  0.8954623184304537
  0.5142245254130274  0.6618843367621708  0.8375257535151653
  0.4812934905456295  0.8543654167446958  0.6876725713603897
  0.1691938135178900  0.8219281824222635  0.6633210021391641
  0.5362391553166306  0.6649009046563561  0.4682076822589575
  0.5220733913515299  0.8437624498246105  0.3277569531634933
  0.1764771387650239  0.8020075793766787  0.3414914260565667
  0.5012457936671928  0.6675596624975444  0.1752268959465841
  0.5146760996754318  0.8323876690495425  0.0016293317807907
  0.3554698161760546  0.4810410712630551  0.8333275784466450
  0.4969202110136100  0.3471668326426863  0.8072135173893507
  0.5218955389456896  0.5266122583930094  0.6493679080324467
  0.3470928585503725  0.5164409064282308  0.5138138487830949
  0.5276806611128043  0.3316604550557348  0.5181658279239544
  0.4724690071985365  0.5204441037625087  0.3405704234659773
  0.3529918661756317  0.5168639384766317  0.1553108677523218
  0.5314888807128398  0.3222174558583745  0.1372436766521648
  0.4996903847029369  0.4983480172141183  0.9700667217978225
  0.3203321240402017  0.1199961834055159  0.8203030981875847
  0.4957468628629016  0.0068937257408759  0.8212112669032253
  0.4723562553318703  0.1569898583103274  0.6465445769998767
  0.3399600985427834  0.1808557847966894  0.4598731938282962
  0.4758974331679809  0.0134829982189889  0.4836413278069627
  0.5315858837550419  0.1853589567009478  0.3277616089856358
  0.3389894405969098  0.1870235143303859  0.1801273916639351
  0.4674110434792472  0.9978594305523070  0.1751061077260459
  0.5041288811648255  0.1809744272905011  0.0086904822706822
  0.0051129965191589  0.8375902061677064  0.8072004001165322
  0.1740823053111956  0.6547849772177773  0.8267389828339794
  0.1787782687375598  0.0027541606513373  0.4666533259153599
  0.8563071304850903  0.6340445041356182  0.5231271529697313
  0.1830623336032551  0.6766920778725956  0.5205796895204517
  0.0249416537195686  0.8232339178634560  0.1487699437098534
  0.1819982353312538  0.9843180766172137  0.1463281775445591
  0.1192432588672557  0.6682711530917251  0.1534081546989467
  0.3222383593242411  0.8112457021570677  0.1210965263608346
  0.9948979598481849  0.4981042140754954  0.8421995511795907
  0.1593941985871258  0.3271221620583586  0.8343382562202385
  0.1973904845476014  0.5030268755547853  0.6742924267750592
  0.0288752389218031  0.4894940604885933  0.5012766509180007
  0.1661250295662423  0.1800056924015994  0.3383489890228965
  0.1893151229832229  0.4631313380434841  0.3458434861682463
  0.9982785319049410  0.4922394571070405  0.1738193801848173
  0.1786273796147356  0.3405386827845152  0.1343525730433651
  0.1617457835017921  0.5113835904755004  0.0036777192464150
  0.9931027659222421  0.1597107005276495  0.8343858670623208
  0.1480326059343439  0.0018948574358150  0.8545646050816452
  0.1593460007065994  0.1482941185668247  0.6575204550308644
  0.1677855993828018  0.3227160539244172  0.5271449250515855
  0.3252249882577802  0.8323065972590621  0.5254552259825783
  0.0092812708983970  0.8074035256623623  0.5067073233211429
  0.0000085787176736  0.1484705539833173  0.1738550275882642
  0.1632468408032115  0.1461947071492851  0.9983365436374392
