Cl O  Li
 1.0000000000000000
    11.7780000000000005    0.0000000000000000    0.0000000000000000
     0.0000000000000000   11.7780000000000005    0.0000000000000000
     0.0000000000000000    0.0000000000000000   11.7780000000000005
 Cl  O   Li 
  27  27  80
Direct
  0.6674503124889065  0.6761374813709669  0.6635327131575458
  0.6785265943365306  0.6665072978807766  0.3341305840592460
  0.6558490968160775  0.6450078043331742  0.0141566934308782
  0.6584682599263503  0.3312305536167028  0.6610615242205821
  0.6860460304943999  0.3450585275640189  0.3439188225898188
  0.6501129619949828  0.3311959790766191  0.9803122748209729
  0.6661248606530760  0.9914216682398094  0.6778340627605158
  0.6883025253024836  0.9990931846771731  0.3390200879877999
  0.6576798065678847  0.9859140741903769  0.9866953120905438
  0.3170648788196631  0.6726664242648619  0.6765484890534703
  0.3175035179935934  0.7000286100250128  0.3296938689553944
  0.3352722810157741  0.6618590869954296  0.0070251068675927
  0.3306179365908221  0.3311854528700363  0.6631589923384447
  0.3317453338012554  0.3498543887393953  0.3263455028840946
  0.3333323821133746  0.3649790496387839  0.0089153712899975
  0.3631982463519615  0.9982870116771395  0.6860661231040439
  0.3380048437592721  0.9980170748901120  0.3448087323855789
  0.3359590957526001  0.0038165187709907  0.0200871038173866
  0.0059635720008971  0.6790756695115199  0.6586194847787705
  0.9817515344798400  0.6786578195955906  0.3160417029007168
  0.0051888020784048  0.6733553644857095  0.9975710896291775
  0.0018522310201094  0.3454556489500619  0.6757632745277996
  0.9801259731563517  0.3014496075254526  0.3626578994318886
  0.9836865257914541  0.3345636566884574  0.9750362225242141
  0.9822770540783197  0.9924754161637274  0.6704316699227659
  0.0009645246744141  0.9733426623583815  0.3202651611077409
  0.9948734441430754  0.9895392118082611  0.9710858485285475
  0.8163944757344328  0.8187579045556163  0.8283550112667432
  0.8381647761890841  0.8217267806368993  0.5034837258503916
  0.8402463740262529  0.8321391422470152  0.1400270310309094
  0.8107153443705254  0.5038967177162759  0.8157289074414339
  0.8372170937133481  0.4975620870801263  0.4910760408116766
  0.8511654510271031  0.5005131090956285  0.1595435087145326
  0.8180500051174556  0.1653333982378141  0.8339419978376407
  0.8290856800989161  0.1654584880331578  0.5123468322785616
  0.8168772237624865  0.1697837468034609  0.1664102593361501
  0.5085058076501627  0.8179933780744219  0.8255236236375961
  0.5217093548773611  0.8306463642119273  0.5010839531765515
  0.5004831783322234  0.8431741694619167  0.1817188454528690
  0.4917061843709832  0.5168384053120209  0.8273155078812767
  0.4937018721682717  0.5046446856648072  0.4909434510941426
  0.4953114101256094  0.5072486262609447  0.1802705608832986
  0.4917849689787148  0.1661633997482243  0.8702044556322810
  0.5062871262149574  0.1717487061746096  0.5041271604704733
  0.5152755754722833  0.1637272104481484  0.1943347874402848
  0.1749941665310983  0.8227189970635628  0.8314165179659554
  0.1615757429906748  0.8318672422338981  0.4895976755825252
  0.1691731236840195  0.8308967259869594  0.1651401510556994
  0.1788582964822527  0.5007598676691764  0.8167112454280736
  0.1769288428156162  0.5042624224242100  0.4996194339575975
  0.1604986286593797  0.4985167330463710  0.1582975904665175
  0.1867954003717064  0.1658994449968068  0.8384721532676200
  0.1915792981084473  0.1623237027419650  0.5133520040364040
  0.1689719719247622  0.1652232981654984  0.1501738488372679
  0.6630624227894353  0.8205034734903321  0.8550395927208280
  0.8410249894301042  0.6499801414104530  0.7820939527515128
  0.8241595773597817  0.8575840604489195  0.6572287299767166
  0.6716655724004189  0.8250588918161104  0.4640592765690829
  0.8273461030048703  0.6501510303257847  0.4862027310470963
  0.8397153673895579  0.8330108740937150  0.3437697957958515
  0.6506542519258011  0.8363808796166243  0.1665607739689324
  0.8205858492540843  0.6754207681589045  0.1779046947402781
  0.8292176625353012  0.8085437595125374  0.9960975522851607
  0.6482820903015357  0.5463292734410936  0.8030200514382196
  0.8406781104377895  0.3142335437213897  0.8305305352549589
  0.8360941903834176  0.4883175676049678  0.6602008044053842
  0.6849095240667316  0.4726692684134923  0.5088641963452157
  0.8287975859218254  0.3090573828477978  0.4913380623847696
  0.8233425817873128  0.5046521754656449  0.3252035106833802
  0.6672339989436288  0.5177336186964823  0.1607084561426796
  0.8067534421543803  0.3395794548533005  0.1506735501307312
  0.8317253288266154  0.5105578226981334  0.9990326493014068
  0.6635270333538383  0.1780443898464025  0.8554446087618081
  0.8083786884507723  0.0052184478624789  0.8439184125535870
  0.8171068570076322  0.1635520503220688  0.6878006800072579
  0.6630736372479870  0.1354850844244337  0.5192838858145296
  0.8450451906365544  0.0058034161736474  0.4967216502561586
  0.9450326553172125  0.1427733893769894  0.2354472758887933
  0.6700176542744636  0.1483100424619864  0.2023350080838257
  0.8303041289962910  0.9786262436762190  0.1675102884094679
  0.8287012306461825  0.1453343951958919  0.9894139446901019
  0.3081771572622531  0.7899939924473192  0.8129878832472598
  0.4824813812904624  0.6628084698583827  0.7722224762181157
  0.5554424462009624  0.8319070798772733  0.6538018829382596
  0.3371427879255467  0.8486521693092718  0.4855759359304974
  0.5225902364267060  0.6687825779190697  0.4876937277241472
  0.5195248026427303  0.8432246952535142  0.3337445759182299
  0.3117755612253056  0.8543669278339210  0.1749672555798089
  0.4684135515319921  0.6657709087594863  0.1849194802633194
  0.4956552122267692  0.8061481568359202  0.9804847502583063
  0.3408258873661810  0.4773918509968882  0.8366483665209116
  0.4986341691751259  0.3318944131260962  0.8434636804292077
  0.4879473974564771  0.4770665102426582  0.6560538433804307
  0.3259247059296284  0.5153239270972082  0.4853843184852797
  0.4911134779695487  0.3361742877518634  0.5041538808410297
  0.5330214642378514  0.5326508728407787  0.3394387071265179
  0.3209725508292016  0.4999844506127097  0.1914454651895221
  0.5191654946295657  0.3549548621391155  0.1675012804057576
  0.4922372314930879  0.5561856084311754  0.0158493416089652
  0.3325389895348972  0.1413907518996270  0.8392711733180784
  0.4781027627498661  0.9896009324482901  0.8479867104270387
  0.5052186757613883  0.1535178831688517  0.6786032450638525
  0.3361002076489252  0.1701179943478764  0.4955775730568326
  0.5000180009720813  0.9939705151514566  0.4980547538344666
  0.4946080975842353  0.2075022623663790  0.3376044549013413
  0.1603372234513252  0.1622136633977643  0.3163193720847495
  0.5215084257878585  0.9977751457831600  0.1643146535471443
  0.5075939142768084  0.1825901321592064  0.0125754876694800
  0.9709341429118842  0.8350515006960302  0.8676585711139888
  0.1657682197377469  0.6478359126441164  0.8136578358108482
  0.1552175903313537  0.8546529167696952  0.6602828278459107
  0.0013595057106991  0.8235091103238353  0.5225157551187442
  0.1144383777774222  0.6782541800585483  0.4745925680986719
  0.1469673216747077  0.8396929100325085  0.3389387932846523
  0.0061521498774472  0.8322103965684992  0.1276168865035407
  0.1826491478414265  0.6679582140019926  0.1550886359043256
  0.1686394045248591  0.8191459167244239  0.9842288713330638
  0.0022620839605537  0.4810328253684862  0.8300092451166482
  0.1848713312645911  0.3392491343936487  0.7867653212913422
  0.1907658045239377  0.4918785428065360  0.6436539315404229
  0.9876880733452771  0.4564785456997207  0.5013695372582261
  0.1976094987045978  0.3256598624233037  0.4832281870084225
  0.1678286234628150  0.4919077327870985  0.3234381646259114
  0.9885429303670487  0.5100769369989367  0.1742554815877585
  0.1684044373269544  0.2302983821379390  0.0079359773517616
  0.1787816980866575  0.4769619364287986  0.9767582162986580
  0.0224495548093177  0.1600917420923014  0.8597103134940984
  0.1837514440977006  0.9760673658716760  0.8350056305274279
  0.1994588519876797  0.1486697249651929  0.6725064662110657
  0.0132365266572425  0.1635229716763837  0.5533934914505174
  0.1665793955325378  0.0054666155180680  0.4771687357035946
  0.1841940103563946  0.3235042167713658  0.1886250288637623
  0.1670582063544752  0.0084300905926320  0.1510321597705745
  0.3631431457090412  0.1207593566331827  0.1710078837017845
