Cl O  Li
 1.0000000000000000
    11.7780000000000005    0.0000000000000000    0.0000000000000000
     0.0000000000000000   11.7780000000000005    0.0000000000000000
     0.0000000000000000    0.0000000000000000   11.7780000000000005
 Cl  O   Li 
  27  27  80
Direct
  0.6875028296722474  0.6625810724774017  0.6686609957522306
  0.6587021163263203  0.6854433049233839  0.3485490536714949
  0.6754282585864696  0.6608061111350735  0.0184169675714081
  0.6450923789812535  0.3259694230342777  0.6424613080529258
  0.6405280538652899  0.3208248812658444  0.3349490328248124
  0.6649249667456418  0.3358294624393685  0.0032922782057157
  0.6376626584917983  0.0215872924572434  0.6801541153805358
  0.6693818435836405  0.0014920752060285  0.3405461407481934
  0.6694187257920905  0.9896603666056772  0.9751942935256414
  0.3336751442660673  0.6637340969523232  0.6636131938708345
  0.3430796823239902  0.6861467794063978  0.3209356154572934
  0.3155399680412786  0.6394240252762796  0.9849060057752553
  0.3521461874516688  0.3490461876675005  0.6631384619539481
  0.3329189780220242  0.3473970549792473  0.3278019409821066
  0.3470652280195369  0.3426997352916503  0.0311939731712321
  0.3515259104860693  0.9755079982505883  0.6613247965597230
  0.3378604652169334  0.0047611012603791  0.3322789997969575
  0.3402835574868956  0.0027181619290213  0.9867429464846855
  0.0113411161801847  0.6325890759441654  0.6665832440290057
  0.9892288291419754  0.6858041108967162  0.3559935513355761
  0.0014698806614936  0.6687455834210082  0.9937095334946158
  0.9894699589783735  0.3462855685349182  0.6491110366345918
  0.9922390673953514  0.3084282487440413  0.3322004378589805
  0.0268187655732809  0.3371785172691906  0.9930297296921381
  0.9873499721164040  0.0146048029048079  0.6711959087244306
  0.9902205793538401  0.0140578905626852  0.3336908474975873
  0.0106322837061999  0.0131056762513747  0.0158793812969833
  0.8717081250685156  0.8350956794448865  0.8327979568420645
  0.8217732585142309  0.8539436620396791  0.5236817306431844
  0.8501123977015000  0.8344864549961992  0.1697909993323845
  0.8296387639562161  0.4866883629050205  0.8415020770654237
  0.8427366847488967  0.5067225680108802  0.4854572689123206
  0.8437418565067389  0.4981945998061442  0.1525268160955642
  0.8448342338375792  0.1652744201621585  0.8306354691558478
  0.8175480391918747  0.1824480982650712  0.4887651293309814
  0.8423294015249603  0.1852345875746014  0.1590441776294510
  0.4782120050580593  0.8145479573994235  0.8525967797745679
  0.5078604424025952  0.8286096738609938  0.5050124101624310
  0.4948631278536008  0.8291479678714768  0.1527366519752524
  0.5085456984511388  0.5004455885984768  0.8493834527881030
  0.4976216012594566  0.5109014720242718  0.4978835367541955
  0.4918498392776201  0.5104256874867270  0.1756094308705224
  0.4991179824960287  0.1722982238102627  0.8300407384839168
  0.4682472906255840  0.1472969852158253  0.4805966715664596
  0.5156228719908885  0.1445437243064985  0.1573438207762787
  0.1819351193386109  0.8383155650677606  0.8257309046547985
  0.1501979688461103  0.8356638516879008  0.4918642469760222
  0.1477552310309776  0.8159603314103823  0.1656888657775803
  0.1784830701324701  0.4813106859034819  0.8249987665015511
  0.1759180765006890  0.4832716777044569  0.4982572575732966
  0.1318287262237880  0.4915362883175721  0.1730397814165990
  0.1686989003855957  0.1840197621214156  0.8354209255808711
  0.1621823789239651  0.1570587058028913  0.5171106247276102
  0.1751295016859938  0.1701288131189471  0.1869297182838192
  0.4833235714601013  0.9909817544755730  0.8587480519891260
  0.8071016698374140  0.6567987033181624  0.8304775760571049
  0.7963106077027751  0.8392785510284518  0.6811963717738776
  0.6657426505700796  0.8306020418546678  0.5109364782564394
  0.8336885195119182  0.6818039094827733  0.5415951075496495
  0.8309541349249732  0.8484271200820668  0.3428572098888682
  0.6652888900955389  0.8458931382742950  0.1377986996651271
  0.8184775032331404  0.6805704809837230  0.1608855856508334
  0.8528561749035498  0.8625940176386455  0.9807802730219669
  0.6710470489796375  0.4850952215387060  0.8717925320406937
  0.8042701202666273  0.3292190856761583  0.8338350311029349
  0.8449734226769324  0.4845080616384327  0.6535425696059719
  0.6738000568551523  0.5057313232340551  0.5108064796051410
  0.8151449062290099  0.3282004120341029  0.4870630012411245
  0.8710064319435388  0.5339152008742274  0.3230438931796086
  0.6512825171893484  0.5092611651553842  0.1938715288554544
  0.7962646972479100  0.3416352524082545  0.1715872053935756
  0.8213455706436875  0.5214207556020235  0.0205451514637202
  0.6563489423593142  0.1509711778662742  0.8381042175804796
  0.8329944376440090  0.9953557079481714  0.8354251360635042
  0.8539484712635702  0.1532988561463744  0.6783265634907032
  0.6542409480348684  0.1753199738369196  0.4962683308394670
  0.8158729958412637  0.0075979291164860  0.5325128535975066
  0.8420396069606523  0.1600734113682196  0.3304934312772266
  0.6758315742402324  0.1517160689236506  0.1705516695782827
  0.8595569960725526  0.0050941468941871  0.1651551364970673
  0.8590059086725303  0.1835957179377665  0.9797420474572515
  0.3283292685540319  0.7792394168336489  0.8448203422344374
  0.4937893738113301  0.8011519830188084  0.6793975240396883
  0.6354159611529187  0.7884113054833860  0.8502919453870230
  0.3525418513629541  0.8256914045421282  0.5172658457892974
  0.4984676653562582  0.6657840756843332  0.5164117250959188
  0.5135772251977413  0.8111582759672861  0.3425089139072057
  0.3122074520079680  0.8531896617650675  0.1872148570259846
  0.4945269370095085  0.6517008614700880  0.1781867118242185
  0.4769444473584343  0.7879022419388753  0.0010539270289817
  0.3372461396065943  0.5238889891040623  0.8015351232909989
  0.5059721623978617  0.3233744094710306  0.8299269744820021
  0.5141290008497325  0.5483328650599376  0.6915945634905166
  0.3438523868579912  0.4863550870104434  0.4795225126700897
  0.4910540580599566  0.3449188620663648  0.4754210167604919
  0.4962812912781803  0.4843250675855307  0.3432886629025353
  0.3262140070985031  0.5186073030094773  0.2022617656955948
  0.5068851488772842  0.3418808369049144  0.1471500803798066
  0.5058898960448757  0.5072998899565396  0.0103423081758582
  0.2022502122185931  0.1697889887093133  0.0263344914615700
  0.3390546228683479  0.1705346591108309  0.8221405775310278
  0.4802780564978131  0.1687324915730270  0.6536310302266778
  0.3170325031639069  0.1242461110022554  0.5070678544247821
  0.5043769562756406  0.9829651501356121  0.4958693471245671
  0.4773890581303299  0.1663423038199887  0.3363461438362262
  0.3575658883087189  0.1543178233076518  0.1737643285554836
  0.5066159209012229  0.9877821940365675  0.1593130209941180
  0.4956253466664289  0.1395590391791897  0.0081971880979186
  0.0225656846978758  0.8123338913009506  0.8472760252593965
  0.1795780790149560  0.6381469939907303  0.8254590046416813
  0.2036225461591272  0.8411931870350523  0.6565122149100436
  0.9951454406458339  0.8337818469217072  0.5448338593735528
  0.1827496048156639  0.6586877525456847  0.4824757613831382
  0.1161576843532821  0.8088263973259052  0.3480304760556498
  0.9936277928662326  0.7874003847973329  0.1408613197131125
  0.1253578723045629  0.6530208072901674  0.1756250379960521
  0.1909582443495452  0.8354097652551548  0.0012999914991538
  0.9693024341524319  0.4770132810952133  0.8469728705098104
  0.1913285036660970  0.3304458543252746  0.8720500192478741
  0.1758461136845313  0.4774095522876478  0.6732839842271887
  0.0188425021710686  0.5144641071276475  0.5020244654530689
  0.1638924623968740  0.3168123520445767  0.5184826347848650
  0.1321111220794304  0.4651484649183038  0.3222969171236205
  0.9786200728082695  0.5096298657836537  0.1228797248909085
  0.1455897170603682  0.3409978501142531  0.1498551231659020
  0.1617808952350017  0.4827849621062300  0.0144666631600399
  0.0096479480176139  0.1803968847280581  0.8259906590449353
  0.1874641308024829  0.0030253418139731  0.8542340907231204
  0.1456362347963824  0.1236532325378288  0.6815612262882031
  0.9784674073880845  0.1810901366450637  0.5007375962129056
  0.1530476052737851  0.0187975946789760  0.4608660665496953
  0.1641816901654427  0.1885562535180497  0.3542406140562521
  0.9988455672061221  0.1608138591518558  0.1859368136051868
  0.1635757450349600  0.9976413664845595  0.2193970535085376
