Cl O  Li
 1.0000000000000000
    11.7780000000000005    0.0000000000000000    0.0000000000000000
     0.0000000000000000   11.7780000000000005    0.0000000000000000
     0.0000000000000000    0.0000000000000000   11.7780000000000005
 Cl  O   Li 
  27  27  80
Direct
  0.6572597496846035  0.6548251677818190  0.6834852525260020
  0.6637615040929609  0.6728266409403005  0.3162299736340485
  0.6449516587543263  0.6582007602912993  0.9687093204661335
  0.6649139617721432  0.3194532423189902  0.6628323089001203
  0.6674845828759051  0.3479096474961333  0.3286564439029729
  0.6599888711682573  0.3516687582939189  0.0079547394692066
  0.6793862812612645  0.0308203916671593  0.6605095799613846
  0.6711489982998550  0.0176819285319370  0.3432083374653196
  0.6760529960051651  0.9597162204473415  0.9815611304518251
  0.3377942786296947  0.6810580535172696  0.6635233138768745
  0.3423730165515949  0.6615424665126650  0.3210543770234284
  0.3274349933920023  0.6541076043761479  0.0083778259198770
  0.3397014248354575  0.3308934880019214  0.6671268797296935
  0.3232550165152475  0.3315343922838823  0.3262141008205871
  0.3276283314671423  0.3279064946996929  0.0266251062447731
  0.3712252273389581  0.9905726032557126  0.6476597132753699
  0.3413660229503055  0.9795362020672117  0.3571972611598286
  0.3282941342762126  0.9957873312266506  0.0160110020414486
  0.0068343588863827  0.6749870638706106  0.6599978038944083
  0.9825911191333724  0.6612242107051733  0.3094990718054647
  0.9777720421057369  0.6643944612154683  0.9924915111056458
  0.0051723107197760  0.3138391102807319  0.6709606861088073
  0.9994650005616779  0.3454800775605817  0.3206506767582711
  0.9963735428827134  0.3428538699889803  0.9835685805258686
  0.9981392128234617  0.0093132153804373  0.6961001823781696
  0.9808026040348997  0.0036221876318545  0.3436023009893879
  0.0052592714825607  0.9826212927828795  0.0003056984439093
  0.8326859863637248  0.8275779909013556  0.8238015295750752
  0.8385287597545856  0.8303298651853922  0.5086123299444494
  0.8178945608735032  0.8163721152565325  0.1547908388059892
  0.8202192331119158  0.4976788629107056  0.8236791826662547
  0.8516355063666317  0.4869288124963298  0.5055141434638369
  0.8322397561754317  0.5080628847338676  0.1625783288630316
  0.8244196753633923  0.1756945515913405  0.8336491197166113
  0.8418025719434917  0.1788126568936403  0.4950083415275934
  0.8173327853252587  0.1762912255629483  0.1768258531134941
  0.5080455487548171  0.8359506975589946  0.8446281960949841
  0.5285051745482638  0.8357500518673615  0.5222874512265596
  0.5046728307094420  0.8418983281615846  0.1785545193895628
  0.4799136543810003  0.4700057087168513  0.8327316393566863
  0.5147269774124615  0.4945464662586989  0.4907235681672242
  0.5062667008131352  0.5099072380688228  0.1703132283725697
  0.5049317753913801  0.1563041454742518  0.8505297543010689
  0.5005629138345781  0.1656662042158014  0.4818671823171033
  0.4862333054154741  0.1797478698631166  0.1819096060389116
  0.1993990950101066  0.8370324677124323  0.8326925304506898
  0.1464638041188475  0.8474752743508185  0.4917522619482382
  0.1624633749696157  0.8478213436349347  0.1677804206416862
  0.1815414665131206  0.5293535950224403  0.8376805758670232
  0.1769661091229499  0.5066764618706764  0.4927902268881272
  0.1548112377593352  0.5082649474148484  0.1690442536835972
  0.1784456686716944  0.1451752022296558  0.8383288282508872
  0.1693032938857994  0.1536828771226624  0.5033611698489546
  0.1435577209083722  0.1726152717971673  0.1644517406009669
  0.6811094212788770  0.7859395564923940  0.8141455163933472
  0.8297599438461520  0.6681877821846481  0.8525745913860174
  0.8511222323394880  0.8559163203804263  0.6619899289756227
  0.6808542822254728  0.8068965860322903  0.5542845281721891
  0.8699177458430057  0.6484215095217318  0.5043178400856960
  0.8039153536773787  0.7988080869523885  0.3327344582748090
  0.6561604088632547  0.8375299524297019  0.1948539251863024
  0.8681838367063507  0.6672775487131012  0.1393673753385824
  0.8219496605033167  0.8277274630348321  0.9897070270890764
  0.6677541347352458  0.4826155778927771  0.8101121169432584
  0.8466606591939370  0.3173928183512171  0.7744148354712974
  0.8514742934642743  0.5156934533420058  0.6726989271843253
  0.6896684417930324  0.5269718383560207  0.4769579619939115
  0.8818071771491554  0.3263817534334621  0.4565446515094293
  0.8281261956136736  0.4949948826591284  0.3245368712578397
  0.6749406998526373  0.5218741179641762  0.1384246523255633
  0.8278372107575644  0.3463255343762341  0.1640627770250256
  0.8038245044174865  0.4733206135968407  0.9777836266262387
  0.6681684624205109  0.1607743824975288  0.8125435087222572
  0.8551736073115874  0.0016895353015410  0.8367010718590792
  0.8064795376009610  0.1906594773058342  0.6471914995094827
  0.6784116355025125  0.1732897587266684  0.4876610088473537
  0.8316860777091739  0.0009056906376705  0.5068347370504754
  0.8037470963136928  0.1955331109536939  0.3385538513414328
  0.6496062663344429  0.1603911374857406  0.1489587535633509
  0.8156237342303031  0.0008685530232165  0.2070988588770827
  0.8464328882776478  0.2178989517884750  0.9814980263494284
  0.3434719930042544  0.8735550037804888  0.8391393461577666
  0.4724797638943218  0.6625253308096336  0.8619415387408166
  0.4846389899722717  0.8109294186866399  0.7031810805756331
  0.3173225881840877  0.8057025903225158  0.5006671492157139
  0.5401825432771786  0.6817032290099785  0.5341542511885559
  0.5065617989661444  0.7964239821321926  0.3631964296892646
  0.3269713747201426  0.8635604516008921  0.1634432996462723
  0.5065058481296156  0.6787046366378039  0.1428203860732092
  0.5024788453742964  0.8632960009032031  0.0026568187252381
  0.3192318801165770  0.4500536889931577  0.8224704502672638
  0.4815993858798339  0.3196483819948723  0.8137404193815471
  0.5016638740723243  0.4566744300213110  0.6380092061093927
  0.3290002807962821  0.5216254970617711  0.5051745923307202
  0.4837187566044709  0.3319849948964481  0.4629196865846930
  0.4907067003007259  0.5316798866772502  0.3308093770324453
  0.3106692564009375  0.5110286029531759  0.1384066059540853
  0.5018951267338676  0.3378366345920845  0.1580682845604370
  0.4895421374839733  0.4841115137898398  0.0190828439067155
  0.3493543206406208  0.1493911605144896  0.8059688400906089
  0.5354583412773856  0.0013868814007567  0.8197499116905163
  0.5296409117531433  0.1559479244735946  0.6424350711233821
  0.3461690905286503  0.1435988218230541  0.4649842805496893
  0.5237080583251793  0.9913043327593534  0.4950794743928475
  0.5211254535400770  0.1541661109756351  0.3284487132646015
  0.3356997659467572  0.1926599626242000  0.1634534918482232
  0.4888289869879852  0.0023362886182144  0.1933683940395927
  0.4598455629870257  0.1700184566331781  0.0247432254651472
  0.0039863295397069  0.8348836640947732  0.8330288832364218
  0.2326367866150499  0.6617152987276734  0.8453195249550177
  0.1924617175908591  0.8543577940396053  0.6636990205559883
  0.9884652130494935  0.8744267356271885  0.4891286859282826
  0.1561274791644058  0.6646049853471253  0.5020177020057036
  0.1377313339871822  0.8551537371989085  0.3416538191800823
  0.0077613545828114  0.8440395205221761  0.1871808266550286
  0.1507138511188458  0.6798204955064059  0.1691376737670199
  0.1818120912358247  0.8398977011442841  0.0070736067838033
  0.0007852278818731  0.5300216447717618  0.8372909442818179
  0.0356305258472911  0.2025435645378723  0.8434875601555024
  0.1846535394893404  0.5279204924815951  0.6750814530735337
  0.0098300059449846  0.4755877560677370  0.4936360480724691
  0.1265616219347827  0.1629114251036020  0.3295434792346278
  0.1682437097370057  0.5165442542317696  0.3262296269752968
  0.9792229708786437  0.5052655858198851  0.1743520933529994
  0.1645713794154137  0.3437400146416166  0.1958294818667780
  0.1524306652911562  0.4969779390085175  0.9865374578723206
  0.1891337561661661  0.1471042004354305  0.6844838656474350
  0.1448538107006481  0.9947767385356766  0.8523824476304707
  0.0016846797408332  0.1464059283275932  0.5109370831536819
  0.1817817879064891  0.3262712687497521  0.5035291033293612
  0.1850253574941746  0.0064279619133730  0.4789260387416250
  0.1756326006905425  0.0188658117454116  0.1745100876652670
  0.9794039760857827  0.1895404403325524  0.1429719634480023
  0.1689935703784515  0.1456122321085413  0.9990824202380847
