Cl O  Li
 1.0000000000000000
    11.7780000000000005    0.0000000000000000    0.0000000000000000
     0.0000000000000000   11.7780000000000005    0.0000000000000000
     0.0000000000000000    0.0000000000000000   11.7780000000000005
 Cl  O   Li 
  27  27  80
Direct
  0.6685439005060001  0.6485697541366420  0.6576419717310618
  0.6746648491485178  0.6891206289785454  0.3362894352337174
  0.6293262506986345  0.6642191059487758  0.0351527922406642
  0.6838823243698405  0.3509966065619256  0.6722088651377890
  0.6743303182062328  0.3222807911206301  0.3332428271653610
  0.6723854395984113  0.3278676359925929  0.0106657790805040
  0.6522309928250475  0.9872980278652852  0.6859826493639084
  0.6714095387919513  0.9980786517225910  0.2995835205013646
  0.6402950842682938  0.9828758685314740  0.9807857285012426
  0.2978484143903115  0.6966431420275697  0.6651448088708580
  0.3188374274040557  0.6687417310925072  0.3222816048527692
  0.3518594127448704  0.6579260133432185  0.0054178527571278
  0.3592397410342063  0.3355047632371403  0.6806037578000719
  0.3433957353711096  0.3143391123798539  0.3435983067745196
  0.3386025867181988  0.3511502891780351  0.0312372078638217
  0.3396505515543414  0.9941501252988447  0.6742722850258973
  0.3279101875275691  0.9742061988616307  0.2926403334257915
  0.3411616289947195  0.0015805919217534  0.9653147060636851
  0.0066285890594434  0.6744822383378748  0.6422533864443133
  0.9909580684385907  0.6843557391417685  0.3553610997183953
  0.9994998069805997  0.6511220353497038  0.0177690264894203
  0.9969015568776768  0.3369339589359268  0.7090121270383284
  0.0229517952165480  0.3459845532975013  0.3289013135029693
  0.0070154410682228  0.3300352045977564  0.9888911719903711
  0.0071972471273770  0.9915775596302371  0.6630164098998056
  0.9815652129517718  0.9865989409885729  0.3139151936763750
  0.0001566434574654  0.9902619185478857  0.9827482030803566
  0.8394739894994867  0.8124376491920544  0.8394475349388998
  0.8438685997770069  0.8545301679588361  0.5181905035235896
  0.8101943742394496  0.8299441882140923  0.1652464526746299
  0.8311347237904531  0.5257792466793253  0.8386630086651979
  0.8291821124693345  0.5095701435894435  0.4993836541052902
  0.8309148880145114  0.4945596515460691  0.1945269181282754
  0.8207401757607081  0.1466376639791397  0.8352619913182788
  0.8228754572514493  0.1714609388328595  0.4963294752652762
  0.8443106194826666  0.1613981484948191  0.1685665498084432
  0.4967328085069390  0.8193128005362331  0.8158328811492932
  0.4836915672881661  0.8380738204704872  0.4961251454013390
  0.4934063247997087  0.8346757180730836  0.1676516503934012
  0.5073539128906750  0.5031734083344553  0.8382694095098192
  0.4915329029404208  0.5117586229088380  0.4856699907129229
  0.5059597168287764  0.4983869802595934  0.1784215386586447
  0.5006191649481473  0.1817334233516533  0.8189967349648187
  0.5275529745857861  0.1719607109757903  0.4922279388702684
  0.5060141292197277  0.1762128530957526  0.1512333591903903
  0.1616070343365093  0.8288029045080516  0.8531550850343671
  0.1780749808948043  0.8452274304641924  0.4747734235999959
  0.1524831107761918  0.8351737695860920  0.1440360148326039
  0.1912525567315301  0.4964539233914729  0.8493999013213451
  0.1674929550530073  0.5055464606377391  0.5183915135839122
  0.1740851032603947  0.5101668175610514  0.1688044623199206
  0.1695838948985182  0.1529878410127039  0.8568684068335171
  0.1660303082842628  0.1738172301764306  0.4766422301225511
  0.1553828681413649  0.1533162991434987  0.1639518608425215
  0.6696572087937763  0.7749782807381240  0.8220851239762269
  0.8805678141740156  0.6669773769275817  0.8565023377568937
  0.8512224506082456  0.8630676502349066  0.6699097796784549
  0.6432561466654596  0.8120717420570706  0.5329264640022014
  0.8390305123190692  0.7017307815523408  0.5028031732845490
  0.8685530400387103  0.8264057633858573  0.3408443677345763
  0.6487079119671774  0.8553515359555779  0.1702137493183720
  0.8372363608924321  0.6805020949117871  0.1927312687414709
  0.8012828067755887  0.7591692139838006  0.0095946584876327
  0.6763836977126774  0.4863161743169395  0.8235236515620034
  0.8020998833188774  0.3129434183577877  0.8228080314560091
  0.8236993353436072  0.5377751546136013  0.6614890573246341
  0.6618755891211743  0.5154610541327159  0.5124374053157327
  0.8446101305453586  0.3516623486428809  0.5169386541630191
  0.8477191671158333  0.4774835938878598  0.3523050585495244
  0.6673278402478113  0.4997086669523002  0.1792101944441598
  0.8380840444056312  0.3164103054666694  0.1637580470638148
  0.8169166526757177  0.5106227642477286  0.0085426596599409
  0.6492140605621729  0.1429384715880566  0.8673482171365833
  0.8161623285178267  0.9682980516550789  0.8717244470379932
  0.8499741234783394  0.1436966114958338  0.6797901630020375
  0.6791664218790836  0.2218332907268916  0.5225270577232644
  0.8099542147877209  0.9921407072543278  0.4849698360335236
  0.8223111716077887  0.1717674133860602  0.3221850066646667
  0.6581882994406119  0.1545041208282585  0.1725463566971316
  0.8244168177784582  0.9925652056336696  0.1417995603024376
  0.8418380135563550  0.1453140339867562  0.0006586378361715
  0.3216339368525445  0.8305448297558736  0.8441452189951860
  0.5114696596645694  0.6638125109768080  0.8180377975451211
  0.4653364540739108  0.8352338499344343  0.6650673602816541
  0.3249019393851252  0.8224020802266599  0.4513743546182881
  0.5035093373925186  0.6638263974724156  0.4776869561258991
  0.4762682030080705  0.8455386013249455  0.3323120473482725
  0.3267308677788954  0.8218572275797676  0.1438616542933705
  0.4940181403146319  0.6606724625823240  0.1838827775462871
  0.5077247592456707  0.8341494077439411  0.9965684873301234
  0.3384805029645426  0.5024106227258881  0.8579772212407906
  0.4781155927487707  0.3382286216175024  0.8405779685550780
  0.4998361771200229  0.4880529174322900  0.6667126468559637
  0.3283496971378130  0.5205659404421189  0.5150482689169690
  0.4551657903611011  0.3344915348827210  0.5124650163653077
  0.5003102207849406  0.4916055121540020  0.3311118573707778
  0.3560530534474780  0.5265322753040984  0.1318881550334930
  0.4977203286260501  0.3348386770302004  0.1873937127811770
  0.4989803965248373  0.4847381744939405  0.0147517045544749
  0.1758885258459065  0.1741888052688052  0.0207257351969368
  0.4996640736423933  0.9640630576365617  0.8065871471118365
  0.5298838006065087  0.1705975469806062  0.6469828515473979
  0.2484989466209678  0.1636748050370499  0.6092121907764849
  0.5000481992118475  0.9966130485700446  0.5209988954398941
  0.4975997630752667  0.1823665544349068  0.3480759526278144
  0.3519629339380717  0.1467066713603723  0.1628370242305203
  0.5049702938953983  0.9943735073436630  0.1807819797567340
  0.4796078849589395  0.1871112825375366  0.9878355845106394
  0.0011126907565906  0.8394870851604647  0.8312388751623135
  0.1418525834132937  0.6397935698836004  0.8322284195519212
  0.1807631918717196  0.8718442393420476  0.6704013940112838
  0.0045033628161024  0.8708407679714226  0.4881232446132860
  0.1606854143434183  0.6740787607424721  0.4945376719924154
  0.1620321817475791  0.8308296851001695  0.3084893592797200
  0.9892380533885572  0.8410244781173001  0.1202736196607957
  0.1807686574020607  0.6720580124764343  0.1359264430968312
  0.1561604005605006  0.8462033717560623  0.9961171898234510
  0.0046124770054277  0.4826150791115895  0.8449436722499052
  0.1489540178349464  0.2966285066490434  0.8491336692656187
  0.1934760761732225  0.5071576989822940  0.6728451338403125
  0.9947636893813759  0.5360971963134751  0.4803313416465607
  0.1714877617860764  0.3409746457598036  0.4694863124604797
  0.1694078339720676  0.5025131317838412  0.3295168334329015
  0.0015454176373554  0.4715022794242048  0.1852562248355945
  0.1834342572775279  0.3358742533309033  0.1405913137283661
  0.1716691364225809  0.4832756390600733  0.0160901269035131
  0.0105282120634194  0.1263469331945854  0.8237851063393572
  0.1701194359011257  0.9902444256878714  0.8562511662736627
  0.3430456175460000  0.1677089129818124  0.8036146273436596
  0.9886936296339764  0.1546955662104841  0.4722553930437382
  0.1896868847158559  0.0117095028415227  0.4667901865859223
  0.1999262926547336  0.1775970087759875  0.3047719484541664
  0.9977056716057952  0.1672779457930645  0.1628136439062834
  0.1529375291386439  0.9987853354650729  0.1672947816261852
