Cl O  Li
 1.0000000000000000
    11.7780000000000005    0.0000000000000000    0.0000000000000000
     0.0000000000000000   11.7780000000000005    0.0000000000000000
     0.0000000000000000    0.0000000000000000   11.7780000000000005
 Cl  O   Li 
  27  27  80
Direct
  0.6577458897597680  0.6566997956488704  0.6687061834031255
  0.6490267494493233  0.6699443950817419  0.3380324683069124
  0.6487954967877800  0.6704127303038588  0.9834263117261539
  0.6615393321851775  0.3101214479881845  0.6665831689915945
  0.6846137891500342  0.3558959123614176  0.3389760415135402
  0.6756842056787524  0.3484448155755171  0.0029753233903123
  0.6650594576081225  0.9875398668025841  0.6777559680565015
  0.6826391537659112  0.0019366101527109  0.3070015959120637
  0.6806113205531350  0.0159689999954602  0.9809030674081981
  0.3263853396840237  0.6518520726633684  0.6465868177440229
  0.3351735278611108  0.6388809116891913  0.3339968624019823
  0.3275101053428112  0.6522230809600040  0.0186443016119344
  0.3426662436484235  0.3404005265632630  0.6771004282988495
  0.3261407065944973  0.3227208516856421  0.3346721995250921
  0.3347605361943737  0.3371595885272232  0.0026602358824404
  0.3211507178784871  0.9890754366508032  0.6537783220814265
  0.3472326740057037  0.0227828020267293  0.3229076049804742
  0.3298444131087881  0.9760080671605942  0.0232576166042564
  0.9805515832356471  0.6787762467734429  0.6508611863540390
  0.0211483141301460  0.6515736140138421  0.3269500326769782
  0.9920199257930725  0.6691223388330312  0.0169500365477882
  0.9987324121371050  0.3454941174432944  0.6860820355218965
  0.9832159609578018  0.3392240610359897  0.3322752001018323
  0.9669794960566500  0.3303576348042051  0.0162921587577125
  0.9742748100458005  0.9973084001668944  0.6498048815234500
  0.0084005744210281  0.0483306214889956  0.3435311359560389
  0.0040392342942902  0.0065896805524191  0.0041707590206239
  0.8426987077650582  0.8326158653027835  0.8324430271865814
  0.8205639576501806  0.8356702465698475  0.4925295091654669
  0.8443495408405286  0.8297141140311711  0.1586907155700779
  0.8575940997879904  0.4955655159576144  0.8520351316159614
  0.8463154313761059  0.4914921169225109  0.5179414317582753
  0.8290831405209610  0.5256285238998749  0.1885293432491316
  0.8175335437457979  0.1802011562009088  0.8202276073596431
  0.8201364317212774  0.1579428851003225  0.4895703495825682
  0.8348317448483152  0.1592762113483853  0.1527925682597799
  0.5048507148733685  0.8342230551063451  0.8173020506669896
  0.4915673709031900  0.8399059111279664  0.5064465712573430
  0.5076835599772731  0.8139692571370031  0.1467650700647425
  0.5180222786267190  0.4990413908275013  0.8348813824560889
  0.5031335666964262  0.4963429572845777  0.5001105641172557
  0.5245545995195764  0.5087366748568656  0.1650307813725110
  0.5062285548296537  0.1646932705324372  0.8271033254995611
  0.5009447634937522  0.1633468573756132  0.5010295829227585
  0.5157973624383839  0.1849994262581763  0.1595099682041507
  0.1608699515994605  0.8117903323743531  0.8472515375197950
  0.1561941296645385  0.8230710250567342  0.4832475811715294
  0.1541345862544315  0.8206316981373885  0.1693149778157886
  0.1820775250987336  0.5164639631093362  0.8431862355666783
  0.1703964114693998  0.5016130645519215  0.5035008123451322
  0.1581251420194574  0.4937020535091704  0.1799313555279147
  0.1668433410441210  0.1438506122756045  0.8308942983149648
  0.1591899285434277  0.1797394201006111  0.5033649028239837
  0.1803376443641133  0.1809277680957000  0.1714873743060868
  0.6739204992803858  0.8461896516038290  0.8193487500807949
  0.8451871839720640  0.6586268201909109  0.8260656844429515
  0.8483697420469788  0.8120764022809471  0.6417312001035840
  0.6701735341055806  0.8353012625437084  0.4892878828774583
  0.8650137798957821  0.6565581776849211  0.4828504193000764
  0.8178105449205666  0.8384553188900298  0.3336427770066992
  0.6743889559587326  0.8091969989556181  0.1408683599864971
  0.8505944962936743  0.6682357893262956  0.1725462499602066
  0.8743643711449677  0.8477816188932551  0.9890719211706358
  0.6885757723369993  0.5063741487601646  0.8731082733115487
  0.8541820704095692  0.3304402857685855  0.8331690925283386
  0.8407439102318032  0.4966130759396576  0.6934192873350623
  0.6607903116159878  0.5287764264638862  0.4956372502028237
  0.8032191983262393  0.3330308864221498  0.5194488250263494
  0.8189078614714188  0.5064286421219358  0.3670276128340478
  0.6798650125064111  0.5143390458835381  0.1892116033773401
  0.8285950484187964  0.3362440109815649  0.1846138980408857
  0.8506080184205923  0.4961458338236088  0.0202465952112321
  0.6672293136389472  0.1343254074533732  0.7988760879853495
  0.8633852947665951  0.0160637611580871  0.8520459817058239
  0.8623363177952043  0.1947147708081629  0.6575531007328564
  0.6763077619625564  0.1651464743325912  0.5299308215415518
  0.8129670324176977  0.0069415936524254  0.4999031168767538
  0.8389862766449268  0.1436835289888067  0.3205443906318045
  0.6750844548159896  0.1592958265294983  0.1627389731656124
  0.8192435664905920  0.9989149505461055  0.1645574968090296
  0.8178553217839538  0.1582017285687358  0.9958521816723592
  0.3147383957406742  0.7911329758387885  0.8871035937008270
  0.5189387873368060  0.6727484550591836  0.8211054120178330
  0.5016265782824514  0.8222297382383050  0.6670766051678706
  0.3378127717347109  0.8520495908085016  0.4805309696795453
  0.4993458731992272  0.6682155871067386  0.5007133918711737
  0.4823723245989708  0.8373574355434384  0.3204265173607814
  0.3226016339997033  0.8155381477427670  0.1429868501534681
  0.5007028631693963  0.6679967634660451  0.1696396201966972
  0.5025395242764640  0.8283128330225343  0.9998951757692369
  0.3454565790718975  0.4923881400151711  0.8339145098960440
  0.5314311273676932  0.3359379615251685  0.8400346893157729
  0.5110703264598955  0.5017108773023221  0.6818999736465299
  0.3301540657666686  0.5146852366238840  0.5067161636020937
  0.4817499828774648  0.3299033075339254  0.5159264324204482
  0.5373071392801096  0.4751834197241913  0.3387551733596450
  0.3317979960797454  0.4879706554810381  0.1671342210883391
  0.4935619251090005  0.3469098112578679  0.1615926591473875
  0.5084647259619506  0.4972996680067290  0.9996931955614642
  0.3445582483108711  0.1731855407269638  0.8584272920196273
  0.4750193644467505  0.9923085679611556  0.8425498858933350
  0.4890864654678421  0.1633467055553260  0.6628983084356279
  0.3333789918230796  0.1766711725806450  0.5008031075395875
  0.4848663068217277  0.9989457781694070  0.5174545542184086
  0.4858058922154769  0.1908117748634717  0.3216342173818189
  0.3326882095160800  0.1899479579144141  0.1616591159477943
  0.5046282880311909  0.9828519903368542  0.1413958140284702
  0.5663665948809253  0.1762525331992220  0.9644758200734084
  0.9904090821812644  0.8311936938226208  0.8093818899215933
  0.1496714746633029  0.6505809117622594  0.8636749298844576
  0.1878649346915097  0.8011076091966978  0.6732445573713216
  0.9924283109792607  0.8499156858216984  0.5042648125159976
  0.1602366282105099  0.6543811152511280  0.4830441824720207
  0.1815429759886696  0.8416023307750226  0.3325758245132975
  0.9923694502538928  0.8203342113451931  0.1922038192974501
  0.1696790302480736  0.6582204681314028  0.1483121693986094
  0.1498700555990293  0.8624562844612268  0.0098765851354143
  0.0182211683851525  0.5239896745057450  0.8353121472177869
  0.1775192930369650  0.1714280690817271  0.9791990754814027
  0.1571963763515131  0.4754923234019880  0.6765861016510475
  0.9884365343260914  0.4587027809898820  0.5237378898401714
  0.1739678116640262  0.3297239369252126  0.5315203192209722
  0.1491958318246928  0.4807519854335690  0.3373843373792784
  0.9849248792100060  0.5123922239760398  0.2019847097261198
  0.1447934989552277  0.3413590996142712  0.1757418645798253
  0.1581910320241251  0.4670573501838705  0.9887771380447228
  0.9933527712768923  0.1826514141809368  0.8629060309789904
  0.1468944994251072  0.9974066456051137  0.8110570952138438
  0.1671467690702242  0.1728514348814831  0.6802359423274211
  0.9874469304735377  0.1805709701779513  0.4794839360078311
  0.1583671131932807  0.0038754826867101  0.4974791744131829
  0.1743422409778011  0.1494533679136714  0.3334021722154612
  0.0167372338817970  0.1495751379054005  0.1514236148509752
  0.1897308060218447  0.0094836485039716  0.1723533977099859
