Cl O  Li
 1.0000000000000000
    11.7780000000000005    0.0000000000000000    0.0000000000000000
     0.0000000000000000   11.7780000000000005    0.0000000000000000
     0.0000000000000000    0.0000000000000000   11.7780000000000005
 Cl  O   Li 
  27  27  80
Direct
  0.6517609251618351  0.6781999598385769  0.6907758444356380
  0.6732966126659187  0.6649585992385001  0.3262104161797019
  0.6324598298590611  0.6780625928426709  0.0117979822757611
  0.6787033986771999  0.3456435314814962  0.6643576164935092
  0.6695423601173253  0.3268631190358837  0.3447623896997616
  0.6484865866626000  0.3288200825385704  0.9750214938828791
  0.6799416449400325  0.9879488239476896  0.6796872145379839
  0.6835024177145512  0.9953003196667224  0.3318332930665060
  0.6534535391803576  0.0070479223582740  0.9954797169201300
  0.3198416764290014  0.6962314731712296  0.6595064522481628
  0.3583600824786912  0.6817341336987690  0.3425087693557833
  0.3320949703569329  0.6789169969339187  0.0137230926170131
  0.3217549561743691  0.3502674511208828  0.6660137126722711
  0.3335297530422903  0.3286692743865661  0.3533446893246291
  0.3367334242584859  0.3595516058123668  0.0128827382281813
  0.3413984365889555  0.0180925471456679  0.6368742174160157
  0.3319791011137018  0.0266547204611220  0.3387172297446406
  0.3400763450421495  0.0121633019798642  0.9795830811729959
  0.0149725354693489  0.6417220791776778  0.6579063878767497
  0.9865946757829851  0.6554199127747607  0.2880808320070187
  0.0319684813574821  0.6723892508923839  0.0048453209816791
  0.0047786391407901  0.3115682777158375  0.6668738656917297
  0.0097023054806062  0.3423657517224164  0.3325063427639545
  0.0079826345565573  0.3145535908735537  0.0333802887293837
  0.0008786127851030  0.9841297302195796  0.6786578729904108
  0.9691995298360426  0.9742565849281917  0.3369187058937307
  0.9966190565372275  0.9917007220166615  0.9888128335948810
  0.8296359623462268  0.8237835911471186  0.8448038820628115
  0.8184938917074599  0.8193317344999516  0.4925759169020601
  0.8357858580568472  0.8295536527417378  0.1689113800996125
  0.8276095866082084  0.4792870437506508  0.8445065572122561
  0.8231401592931299  0.5055543420845456  0.4933795927746608
  0.8101017520530526  0.4793136831503875  0.1506687859609163
  0.8362631000691497  0.1724617047155933  0.8429710265842778
  0.8341207741170802  0.1654310893972678  0.4894132371634228
  0.8374204969683442  0.1558660671743664  0.1820760815759792
  0.4953626287246632  0.8431535116467807  0.8408732345831355
  0.4758310094977247  0.8184975731136706  0.4939684530621514
  0.5014634561184436  0.8357783654899165  0.1514339096019072
  0.5037426227560903  0.5015750716275387  0.8451620969699081
  0.5014857635793172  0.4995794243156600  0.5071406645820609
  0.4944796014485918  0.5007614768295041  0.1851585394748322
  0.4960181279969053  0.1693710282785238  0.8080504172164912
  0.5223351424141989  0.1711877705639039  0.4962950686002409
  0.5068517807827948  0.1870348126327455  0.1795859657098711
  0.1697014122323836  0.8272898705598659  0.8210195134347618
  0.1582814396184768  0.8504529500870682  0.4697391497789263
  0.1995562239540584  0.8309470795808477  0.1653202938744057
  0.1664108795691746  0.4825454309983723  0.8342512789926843
  0.1591537787463255  0.4916216526244350  0.5027165404406988
  0.1580179605706261  0.5064576525509938  0.1866977137897045
  0.1868945941815320  0.1743868466860719  0.8347502211847112
  0.1802718896109969  0.1553439065997421  0.5032148348661669
  0.1619575755686025  0.1702003111729077  0.1542532427002463
  0.6849176257042056  0.8141643387176104  0.8453036339630373
  0.8307363557882340  0.6387299644710924  0.8530369950269979
  0.8460861560522659  0.8167171867264112  0.6755481076825572
  0.6564031846919219  0.7841257839629500  0.5185875498722214
  0.8233552177906995  0.6621779803134104  0.5025879182933383
  0.8113584191774050  0.8114238813191752  0.3262947877740045
  0.6442020967001002  0.8596452433834118  0.1566774989257442
  0.8166062999546950  0.6565390914469774  0.1040253427488589
  0.8739006043267897  0.8558300602928676  0.0116805568745856
  0.6699059190985330  0.5124528130248465  0.8083806162199132
  0.7768071986898569  0.3251353434388337  0.8334657000983240
  0.8395586124377807  0.4759684951837675  0.6661858161499006
  0.6584801267069482  0.5153397061510130  0.5263044333743387
  0.8335045861778839  0.3283824554998884  0.4648629655502408
  0.8429666742460282  0.5156946012544947  0.3308537283304470
  0.6594729099293506  0.5149413297172620  0.1975630059234575
  0.8174151984451772  0.3124611429465228  0.1705435494011033
  0.8519371074959332  0.4672952248427782  0.9942933441702367
  0.6677599494595693  0.1408444821286699  0.8546411889102243
  0.8375408196066682  0.9995092449558223  0.8178823799897929
  0.8347113752771980  0.1776177645831530  0.6651975268080008
  0.6608943526721348  0.1545765663825572  0.4482871051317666
  0.8287561334175404  0.0101032834987750  0.5116816296164927
  0.8367265770420748  0.1377325710940899  0.3168831242839332
  0.6565526973108083  0.1343990125614735  0.2024908900206289
  0.8570507386538821  0.9767971354937250  0.1555771459691469
  0.8258180262478071  0.1948218573502787  0.9931463577146562
  0.3093867848957497  0.8213971381731465  0.8204107748109936
  0.4824189168584215  0.6715811621101004  0.8700649965036155
  0.4691375566733298  0.7995347738963052  0.6800978985363546
  0.3204911838605731  0.8518824899118390  0.5073019584552381
  0.4957423008990246  0.6665372468280583  0.4898266741696692
  0.5025238499754360  0.8323560528173720  0.3204557390408577
  0.3430640468390518  0.8064811795619680  0.1473422212828659
  0.5254583893635604  0.6599900273043451  0.1820510008645251
  0.4950971254063157  0.8484741042203122  0.0033664503174880
  0.3190674739348327  0.5214137322034170  0.8414058606362277
  0.5059628831222831  0.3114744122929053  0.7840712327958387
  0.4757653421628116  0.5061783032224491  0.6977383632944545
  0.3359817114095355  0.4657303018071879  0.5173635949590955
  0.5487621961756933  0.3323441552889839  0.4994229713717448
  0.5027057509222695  0.4792556270725421  0.3562043762553200
  0.3385649032330820  0.4966320055016420  0.1932290630327235
  0.5224637645615593  0.3364446997914481  0.1537630959635274
  0.5216032876588212  0.4971287209961228  0.0080034416836070
  0.3399495852236460  0.1690152424960234  0.7799596965045773
  0.4778037825529905  0.0118537872254113  0.8390572210351341
  0.5692533196180687  0.1510547608151001  0.6616609238232127
  0.3465688282916318  0.1770707864522391  0.5063384866696278
  0.5303341687381466  0.0012061874339926  0.5120645406236488
  0.4910631186750781  0.1825957898605276  0.3426021691965012
  0.3140092875457886  0.1717107206040218  0.2016913234171366
  0.4501501018413145  0.9919528759036679  0.1365269083876765
  0.4836539242884594  0.1795120364285568  0.9985726818898837
  0.9977853939117335  0.8521888834942198  0.8268473072239468
  0.1440993802758775  0.6541531242979247  0.7906591806419454
  0.1763718491012309  0.8195673595857677  0.6472964574661556
  0.9791600072173344  0.8231828686345172  0.4970697569193287
  0.1329635241475354  0.6542285486166318  0.5096553753347040
  0.1947074078624882  0.8247446338081329  0.3102571808806033
  0.0068942304891514  0.8378333239273484  0.1830251607983579
  0.1567438745986493  0.6643423708138941  0.1827695561627393
  0.1814385981544760  0.8280344782193728  0.9852150356478087
  0.9884815539803997  0.4716094715815794  0.8491905571999848
  0.1823011195704158  0.3298116916840848  0.8561705657558928
  0.1586335209859681  0.4648203517335103  0.6848779299164470
  0.9744085952265584  0.4864526779111064  0.5021557365422924
  0.1709881802590221  0.3112143137767841  0.4426766370231073
  0.1452300365618105  0.4944317854133666  0.3575075611156869
  0.9915521135968238  0.4883967063253192  0.1560623838499114
  0.1679500437626944  0.3517308367483586  0.1602005899049668
  0.1665996326716395  0.5152749294951184  0.0295304627796266
  0.9945132727794227  0.1953730257211206  0.8366261531394149
  0.1757330703032916  0.0185370149534597  0.7979606433527299
  0.1650838791664141  0.1670724185227562  0.6554586399921375
  0.0094147958116215  0.1653989338604277  0.5106833808637490
  0.1553813381273192  0.0034910640168283  0.5112598931012097
  0.1781040578506688  0.9965760775596125  0.2114117488860698
  0.0010391536454701  0.1798707371605724  0.2080724920320052
  0.2070216525750755  0.1870575654331284  0.0107522909484201
