Cl O  Li
 1.0000000000000000
    11.7780000000000005    0.0000000000000000    0.0000000000000000
     0.0000000000000000   11.7780000000000005    0.0000000000000000
     0.0000000000000000    0.0000000000000000   11.7780000000000005
 Cl  O   Li 
  27  27  80
Direct
  0.6733427191912376  0.7054967941929295  0.6679247566552439
  0.6591178870130432  0.6551165071585504  0.3172335164420639
  0.6498139349561014  0.6429085366470400  0.9748176180059697
  0.6550842851359047  0.3329517928525191  0.6678783603754596
  0.6842023231248949  0.3272288360323582  0.3193782715187296
  0.6920396507215661  0.3217871920831238  0.0044880443050682
  0.6612412253078538  0.0130669903687113  0.6951338670804341
  0.6732308580035898  0.9973796936061171  0.3484659252075642
  0.6456556785017761  0.9857652316132252  0.0134893296513889
  0.3335867703855865  0.6375326410035386  0.6425972461421481
  0.3248554844521617  0.6762321180491584  0.3489307786844268
  0.3200371336315669  0.6721134968111585  0.9950326173520273
  0.3466352584927376  0.3083850841629038  0.6760233366022195
  0.3245475929096134  0.3384268777503591  0.3495872091210974
  0.3323872281746508  0.3472227379126286  0.9996847061782272
  0.3481654855320145  0.0043380725154754  0.6845177828875303
  0.3374585318365135  0.0032916470737870  0.3206574080455955
  0.3451513062770152  0.9859816438416895  0.9815315475916077
  0.0026152243711936  0.6645370976815121  0.6572805755878458
  0.9799750278301493  0.6772199620515490  0.3548266689331211
  0.9800945369647674  0.6510491404495270  0.9875893908665596
  0.0131584335610472  0.3148250578357017  0.6780557851517282
  0.9915770791471428  0.3658549332724725  0.3272887967365615
  0.0190596754748672  0.3548716464114668  0.0073596165502051
  0.0058408639829545  0.9968569390346188  0.6545497942023847
  0.9990783623430405  0.0044312326066562  0.3326543078724149
  0.9935772968822523  0.9856257872097217  0.9990325353681005
  0.8190203576216460  0.8405979026759396  0.8515371027376181
  0.8297838087067101  0.8394963756424541  0.5166753136826634
  0.8149982131155190  0.8424796645296736  0.1648551681775299
  0.8273312025729059  0.4837143177998232  0.8273326574960927
  0.8259859533716175  0.4845854828507838  0.5138711727344020
  0.8222049399670578  0.5054777762201955  0.1702103454124976
  0.8278759742489784  0.1552218958627411  0.8400583554298395
  0.8329185130270830  0.1846332304039985  0.4947418570259778
  0.8752405030973708  0.1627582549219627  0.1587328227883696
  0.5069305590339305  0.8301810066999109  0.8323259660157175
  0.5085482750440748  0.8320083561626938  0.5040460115099692
  0.5009050345026274  0.8339918173661822  0.1690317847652603
  0.5073955744524329  0.4932378222348371  0.8254667659230527
  0.5083898961204129  0.4988405981156090  0.4814998081739321
  0.4982953449782792  0.4973289943649018  0.1686695111958180
  0.5077839105045201  0.1915647374388055  0.8529455091784036
  0.5160248776382338  0.1577106554676164  0.4852684735284621
  0.4729970649311557  0.1691494234330851  0.1567659201175441
  0.1545743664585654  0.8437769790056000  0.8409347835840918
  0.1734671157953924  0.8436707452899332  0.5137212552614162
  0.1661734161619630  0.8255332816394833  0.1573174933424855
  0.1900982590411316  0.4955888909605267  0.8132649491938522
  0.1671441753213614  0.4950447265656034  0.4955342374692068
  0.1625350126138957  0.5093325945270651  0.1661193352240728
  0.1578539478183873  0.1645803514028066  0.8423190607205565
  0.1604417954640761  0.1742255448587300  0.4892964884190296
  0.1735520541854340  0.1747708833305415  0.1614480577764159
  0.6575653120274826  0.8242453597786614  0.8448540951489864
  0.8218337697287825  0.6714873899465286  0.8661639955218677
  0.8042422113458829  0.8435120424829918  0.6828271121686846
  0.6656030019179173  0.8377333170106467  0.4734567742093860
  0.8253662027163472  0.6810968853922424  0.5223801937672887
  0.8303144914601254  0.8843888653602743  0.3330031099217016
  0.6482291740696432  0.8480043035692729  0.1540950976241955
  0.8343758258430687  0.6653671295559798  0.1838582807418371
  0.8457120645078794  0.8366447453083402  0.0234864374724876
  0.6630508421610853  0.4795269118503453  0.8220598377062833
  0.8500784969400853  0.3304649765473208  0.8533463147367505
  0.8593802627848907  0.4975114216220646  0.6647501337206760
  0.6682705855784713  0.4758750469034751  0.4845238253835453
  0.8454183023733980  0.3292277424197365  0.4753312891747420
  0.8152676840040401  0.5361977409094558  0.3437533830058320
  0.6649198106252804  0.5034200647748880  0.1665834700849091
  0.8152467935325142  0.3340409313505647  0.1772579646029955
  0.8148853397926229  0.5111965832858383  0.9924221709402888
  0.6504882194585528  0.2017430326513877  0.8404858813587430
  0.8275716859079140  0.9993901198322291  0.8678535326492349
  0.8181949410839110  0.1874887878228761  0.6717194136429515
  0.6807319137853490  0.1824624027233352  0.4905418601140106
  0.7928915598751357  0.0194982786559092  0.4780634065787308
  0.8245939030364456  0.1708892029541806  0.3246780545915550
  0.5008024039884446  0.3251558211020956  0.1574745058835622
  0.8129731329106183  0.0158270224628495  0.1419633611395908
  0.8486709002074988  0.2177380893789482  0.0157694894467481
  0.3554458148588132  0.8278108288607327  0.8400978691899353
  0.5154587296657163  0.6417889936061338  0.8200754048529563
  0.4994481670261510  0.8525461187973131  0.6777699581575939
  0.3283191732136586  0.8308321740332900  0.5382769114341194
  0.5487557931243278  0.6649215471342458  0.5264237145698609
  0.4968179918843761  0.8010156412667079  0.3400930566082855
  0.3292906408677309  0.8435672645821417  0.1532730413754848
  0.5165397710817748  0.6989951612408022  0.1869127632224256
  0.4878280851522928  0.8472966186036257  0.0008680967269624
  0.3377085292428562  0.5041679922380095  0.8436014765656270
  0.4874573602535267  0.3471659368824912  0.8321568989438329
  0.5014020333949777  0.5025660250523294  0.6635304702610033
  0.3150382178826663  0.5270165406154340  0.4901027553578660
  0.5080261751975654  0.3208601369237492  0.4682879614376971
  0.4844190921796168  0.5002400572807989  0.3423340050189546
  0.3550449283296463  0.5236702190573359  0.1789806390383938
  0.5332118248342523  0.1710711443864242  0.0155624862805863
  0.5144315338448697  0.4875325372961123  0.9925937721458014
  0.3315768317240011  0.1708199931458983  0.8874369732008891
  0.5416240452519869  0.0127683282344588  0.8513698170237708
  0.4946383788697573  0.1530907337624608  0.6558511977047146
  0.3172248551159087  0.1845154988319103  0.4819400060361449
  0.4915683297490490  0.0088602614921734  0.5314639051941893
  0.5119796564484445  0.1675243087142752  0.3118535520148640
  0.1441592214765166  0.1794887696063849  0.9929338622409378
  0.4957077604877549  0.9983863340670923  0.1627898454751548
  0.3355978223959450  0.1597676482968976  0.1545401031288380
  0.9901441992760522  0.8415553016500597  0.8577093463945221
  0.1646168128781140  0.7084831599713041  0.7912357040572626
  0.1373714578896804  0.8642052690917579  0.6812588693294797
  0.0023378189749100  0.8469424522375227  0.5102001581886327
  0.1406226893411959  0.6742484139332102  0.5100267186924753
  0.2017003249075691  0.8382500727830448  0.3419526324573759
  0.9857125897619441  0.8627727333466518  0.1938627518468676
  0.1507424426510135  0.6617863974743637  0.1430344735088633
  0.1777729618116322  0.8309596221037624  0.9918202503125871
  0.9862735619278354  0.4936411378886001  0.8583373560734191
  0.1840689693667046  0.3324477494988404  0.8096633671261200
  0.1549282696695039  0.5053915827824460  0.6395205574142108
  0.9796200213917903  0.4896659159725867  0.4669171254573306
  0.1689763324265739  0.3431208371489315  0.5168922345090898
  0.1364063363236152  0.5136243718633529  0.3289602773710983
  0.9878032221713733  0.5039179543462569  0.1470900792063007
  0.1662093975700419  0.3300981180052035  0.1535504271616479
  0.1837060581520559  0.5232075922780197  0.9680600337619011
  0.9982177608211500  0.1313813436070553  0.8143697150601321
  0.1780806104417210  0.9956694238370639  0.8573104841358521
  0.1934051882953638  0.1907817698533861  0.6666710449658165
  0.9786356578694849  0.1361618608120667  0.4901694348280274
  0.1888308430404414  0.0005562700803236  0.5072647635413653
  0.1565229393600433  0.1591153777360978  0.3435632635207818
  0.0313406601580246  0.1627757041336443  0.1706056651977986
  0.1943022437659773  0.0157234898831267  0.1736259779924028
