Cl O  Li
 1.0000000000000000
    11.7780000000000005    0.0000000000000000    0.0000000000000000
     0.0000000000000000   11.7780000000000005    0.0000000000000000
     0.0000000000000000    0.0000000000000000   11.7780000000000005
 Cl  O   Li 
  27  27  80
Direct
  0.6801165976728345  0.6417702568477142  0.6740913090933648
  0.6456603154715816  0.6824176893923103  0.3045972275174688
  0.6534931491877501  0.6614129680395118  0.0047381484461394
  0.6801980543176219  0.3375909227497157  0.6653609138389586
  0.6639013812860529  0.3568983135337346  0.3431564428603721
  0.6750049502999727  0.3315909242693761  0.9753801268639201
  0.6636608979510447  0.9680122393187481  0.6748717868260733
  0.6759214185246495  0.9738252179782356  0.3232478639815376
  0.6666356039313581  0.9739462870663053  0.9922063604439479
  0.3342040123358090  0.6652807416775602  0.6814032170399119
  0.3208572277282639  0.6834227801793328  0.3320387849237953
  0.3173225680431527  0.6423766878031161  0.0284830071096009
  0.3212212522916858  0.3568795687889351  0.6494405122073165
  0.3449695484194846  0.3417007788964648  0.3384729084548576
  0.3395822561330866  0.3473824203557882  0.0187422566997117
  0.3338662223180244  0.9838258619468583  0.6341196994967976
  0.3197220978045333  0.9976928815417176  0.3315369075395479
  0.3230929535210514  0.9924073512309427  0.9724334772726908
  0.0331287755882733  0.6498957595922958  0.6687502713878166
  0.0157317344180782  0.7088002496882871  0.3459763326330979
  0.0265463767736656  0.6666733992938813  0.0233725363439651
  0.9997918307193445  0.2993943757090015  0.6550560409922176
  0.9852166587974799  0.3230483610743588  0.3105220648342659
  0.0113251050344838  0.3328517006628369  0.9916301891695489
  0.0158319244211434  0.9991677076185688  0.6654798599733447
  0.9832262897709214  0.0193539131401260  0.3500594076811757
  0.0279476451306120  0.9947018725928914  0.0226510762175880
  0.8489983273507081  0.8345483377975152  0.8196233215042404
  0.8089819004053439  0.8328915938521945  0.5178787192315601
  0.8493461779928616  0.8241480408395598  0.1753439935869713
  0.8496019648128247  0.5089692459592868  0.8584588700126484
  0.8464652362219551  0.5286413495586967  0.4918158317324225
  0.8401933984566133  0.5033418144638652  0.1732576589568404
  0.8241761557244091  0.1476144625314076  0.8363127030121695
  0.8153679070266997  0.1801295604184956  0.4860526121720821
  0.8124353058727177  0.1786872879323004  0.1775664806507104
  0.5012606394911512  0.8207185217640471  0.8159431167704163
  0.4637893278412903  0.8207732580382779  0.4917654678824646
  0.4765921504809617  0.8340274525133039  0.1399655043541833
  0.4954393233675555  0.4958293822819147  0.8436425864807277
  0.4971221399168738  0.5206610274941383  0.5108803302995422
  0.4986186426096756  0.5082817227277869  0.1771077404707478
  0.4889469615743029  0.1652411521287772  0.8210584483155823
  0.5028665742470048  0.1654701376073642  0.5033303681425827
  0.5127872810388817  0.1661148475178588  0.1375527561064592
  0.1772400132656286  0.8285403839341235  0.8120336026747258
  0.1648910826780803  0.8337613014283977  0.4898047999647689
  0.1494891878128160  0.8527607804271631  0.1799548769243591
  0.1653018577686236  0.4901920318610591  0.8563703086849713
  0.1678791994504345  0.4961664638050254  0.5024560452296472
  0.1523774675642728  0.4925948409406444  0.1959259258038287
  0.1752251151413264  0.1752916349021978  0.8372178758074748
  0.1645009045398410  0.1882257922116951  0.4910924789131311
  0.1919289094551921  0.1740563440742903  0.1797688464657122
  0.6835093559961269  0.8253081097758098  0.8648246339290373
  0.8553930788206097  0.6678989331379948  0.8600565052594655
  0.8475268446412455  0.8256878629209909  0.6723181291090736
  0.6347737887403183  0.8387825448808768  0.5077023470759497
  0.8397838480497206  0.6716694608213816  0.4917192335443198
  0.8232202951958664  0.8259215447071304  0.3318852440066205
  0.6694972341617260  0.8239624557204220  0.1488841365220779
  0.8468691996422771  0.6674477232442798  0.1808516085116932
  0.8677693066958060  0.8751593334731710  0.0351145805152497
  0.6753230036804145  0.4999318498413509  0.8725045542518850
  0.8375255718836000  0.3241256778327036  0.8389280604939087
  0.8402393089114786  0.5256531214514650  0.6647906768400377
  0.6630327263305080  0.5260991087272985  0.5070446211061613
  0.8404244891765170  0.3517674760765639  0.4876687897366490
  0.8110086000266420  0.5269978038570142  0.3335591942511632
  0.6393202597905011  0.5244843886374891  0.1617220397694570
  0.8526009620390986  0.3435429460192835  0.1767195461175952
  0.8478203638632673  0.4580975875045382  0.0273841951289192
  0.6604071260400557  0.1721334692867681  0.7721750688281042
  0.8169184172563537  0.0122970076087245  0.8293620058930538
  0.8498848768574437  0.1649028965287783  0.6540756463052547
  0.6619205111488001  0.1365955788737173  0.4925289822284107
  0.8234754342492708  0.9783040126050374  0.5234862723907043
  0.7948954878437140  0.1891223416146844  0.3234280847838590
  0.6495257409558539  0.2090725394949311  0.1725024643626358
  0.8393105736075919  0.0208470580742414  0.1895080774075598
  0.8298688092152344  0.1447697855664497  0.0022331507126657
  0.1921298790301047  0.9944387437539578  0.8473854626291295
  0.5266059635846180  0.6594980081496317  0.8333650412856919
  0.5124775271674763  0.7946439744668484  0.6583248329902920
  0.3084588138484237  0.8237537939176222  0.4924489830583809
  0.4854457833232071  0.6764771842218689  0.4663111165800455
  0.4688736070770369  0.8335935298896309  0.2994274633386464
  0.2255340466406968  0.8041938349037295  0.0630056955044982
  0.4797750729245661  0.6814684684709970  0.1672870933695228
  0.4923436874677689  0.8221828790413613  0.9913972506702327
  0.3224886885350809  0.4736162119279950  0.8571533774839155
  0.5231019918402366  0.3176533563173685  0.8191726379208547
  0.4856442023172938  0.5233248460115684  0.6769177170170899
  0.3261872129169002  0.5075177630423318  0.5146277408138569
  0.5125977688349805  0.3399719709214614  0.5099273037496949
  0.4888763955047880  0.5104634004983125  0.3392715034085115
  0.3223074758402161  0.5346728659306700  0.1870777787346294
  0.5030662887742093  0.3446591287711651  0.1775735251120389
  0.4806428372010922  0.4894776668027730  0.9914818727680093
  0.3389956630285523  0.1986746109334566  0.8229850680035232
  0.5137031824678194  0.0018847204854370  0.8144912289993618
  0.4793433769984394  0.1470180213509068  0.6470288368229556
  0.3212760695367365  0.1735886566187323  0.4964339214727786
  0.4981658942703833  0.9906517476078236  0.5018337844789610
  0.5076961597688563  0.1596832745676222  0.3238013602634509
  0.3359832448888853  0.1650645648919974  0.1432768566394509
  0.5094394210352061  0.9904746543034196  0.1330461226996515
  0.5043289072538223  0.1647390419534228  0.9792516656450925
  0.0312693566201464  0.8147964779405354  0.8254571071340957
  0.2139236610225177  0.6691249123216172  0.8577423592276358
  0.1536717456344542  0.8384226295865633  0.6616907899722081
  0.9980039511706421  0.8625349300350790  0.4941790865665023
  0.1489381510195563  0.6553865528291902  0.5257105003270706
  0.1645604383351490  0.8496155499002074  0.3340819013788216
  0.9950433170332033  0.8378494371527172  0.1891092758770045
  0.1347390270766698  0.6663295162219016  0.1676489013567508
  0.3512650701496378  0.8446395691360346  0.7791436911053808
  0.0068760178423902  0.4973143871182953  0.8678708371432944
  0.1463448074794689  0.3454541812514497  0.8208652519393769
  0.1583048757046007  0.4799550530467775  0.6741067340345496
  0.0073420270511896  0.5015293231465282  0.4882385813960607
  0.1792926842773994  0.3395066113769746  0.4716414256519612
  0.1814631071039633  0.5277022904752766  0.3572945148050780
  0.9987928715346369  0.4657366175633525  0.1888708977833129
  0.1995658140299849  0.3318758403417869  0.1723159278363647
  0.1772106613434264  0.4710208542387634  0.0268172298571885
  0.0211778241713909  0.1478385391540400  0.8262561271845541
  0.1948814699162717  0.1819307158210512  0.0064301283720501
  0.1764512967519986  0.1411852478562997  0.6493748448724034
  0.9966915770710970  0.1759923968627461  0.4861090488335302
  0.1745354056976900  0.9702030743829332  0.4997542109122892
  0.1603859674741452  0.1663182968241298  0.3186413733111277
  0.0251674816663840  0.1697774815837715  0.1268317134883012
  0.1542257682266965  0.0145526066771134  0.1832484055079032
