Cl O  Li
 1.0000000000000000
    11.7780000000000005    0.0000000000000000    0.0000000000000000
     0.0000000000000000   11.7780000000000005    0.0000000000000000
     0.0000000000000000    0.0000000000000000   11.7780000000000005
 Cl  O   Li 
  27  27  80
Direct
  0.6383324457985357  0.6975631473076463  0.6777250885715187
  0.6713907263093563  0.6635338242395579  0.3281559014946604
  0.6706264832260312  0.6649151459410972  0.9947493329823578
  0.6719873597955541  0.3285379272641964  0.6484044211058086
  0.6789384617687692  0.3365884105441704  0.3322680653097758
  0.6470962415161374  0.3429877166226895  0.9889947491497316
  0.6669959945756061  0.0219791315164540  0.6944206238617578
  0.6802405940084777  0.9935229034629796  0.3290644953071051
  0.6661363678664768  0.0164260489460381  0.9920947802468341
  0.3357035612020761  0.6550516450334573  0.6671580322100447
  0.3407565047305336  0.6690532001758656  0.3633994832201958
  0.3057240746605094  0.6565712648953314  0.0073788568759295
  0.3484116074970918  0.3461066316331881  0.6962755843741157
  0.3420049938020797  0.3300308874836290  0.3727240018653840
  0.3222610893281518  0.3395387240649986  0.9920198259384330
  0.3239686424629399  0.9964554739366118  0.6389743974823322
  0.3689920417537817  0.0083850152137766  0.3165038968750691
  0.3371331212695520  0.9796331247418918  0.9625756279982461
  0.0041550825978021  0.6684436518438986  0.6725626320091894
  0.0094714422319497  0.6568496830594477  0.3273628732848725
  0.9971449506828574  0.6438289679435115  0.0120234689878841
  0.9928331355989904  0.3219902016728592  0.6535287808973899
  0.0128887663428886  0.3481295661113623  0.3378448495573699
  0.0149471761615175  0.3419962694188147  0.0124852012926746
  0.9925198019317285  0.9980028528728412  0.6549458107304912
  0.9986904929099032  0.0014379750658300  0.3125559621253512
  0.0073722433628122  0.9777510554520761  0.9779276777328674
  0.8057388871384129  0.8364820299474364  0.8425186825250728
  0.8201550938493657  0.8356048730558054  0.5045682210608401
  0.8364614833793189  0.8088101712866999  0.1594031279687792
  0.8262813460805845  0.4971920277247159  0.8327506057286472
  0.8353185802568808  0.5214610876804961  0.5091505621842244
  0.8401936713794982  0.4938737625557021  0.1823777985195007
  0.8395166743545813  0.1638346866242626  0.8359766451338314
  0.8372837420550793  0.1599719432983983  0.4719333774525196
  0.8415313902945387  0.1913358891607744  0.1691147984678142
  0.4802760289121050  0.8303310816161577  0.8399898828497729
  0.5158669147267594  0.8386047609610978  0.5076484725048517
  0.4942974623907910  0.8165896047471655  0.1524199615508963
  0.4983175826264213  0.4969322328491692  0.8568951325634705
  0.5196976442147184  0.5037496115133722  0.4959535735934353
  0.4942472604824727  0.4845530495390478  0.1679582720049334
  0.5099391624604470  0.1681481641402749  0.8363540501252366
  0.5035285407098514  0.1623381535674032  0.4973363932551423
  0.4978768584538792  0.1721225459840323  0.1637188625463954
  0.1388758765168601  0.8220671997404212  0.8171378122416841
  0.1561763346809813  0.8317847507452492  0.4791698205949498
  0.1696617919389030  0.8477800503852692  0.1804070497347316
  0.1585128084163896  0.5050777353862583  0.8433694429294267
  0.1724272591993249  0.5034417199708238  0.5093061476146009
  0.1718833579595660  0.5006262835931907  0.1895212061899025
  0.1565458450174493  0.1424828838520994  0.8355715481220313
  0.1561680655360022  0.1710778604660943  0.4892381776768562
  0.1764969335767144  0.1884153931443625  0.1660859533730663
  0.6468357988740318  0.8412690248180371  0.8066882850252486
  0.8381991981445076  0.6631271078113604  0.8606875628536318
  0.8203106387943321  0.8099105647287073  0.6582577196901453
  0.6601777657177946  0.8020009301898938  0.5154147482070888
  0.8528071437569081  0.6754861293873349  0.4551969923836569
  0.8107457177849555  0.8497560622733300  0.3185612034662774
  0.6505091615735770  0.8044446295335124  0.1817720963014776
  0.8327892137858417  0.6521506224992235  0.1767987268462453
  0.7958988272831244  0.8550467766143300  0.0093880136630355
  0.6736719577029096  0.4826261464532370  0.8224250448374298
  0.8438327429368293  0.3186190423157665  0.8334437969175380
  0.8436971977843701  0.5048417864171628  0.6486685479202183
  0.6776255604100183  0.4775164828654618  0.4912302622726606
  0.8826483726235499  0.3110668332185558  0.4800318359432654
  0.8386650232712088  0.4894758324745674  0.3469076705127446
  0.6613825710320218  0.5007764439786361  0.1640042846864303
  0.8048245646404624  0.3291903698879885  0.1813907237398989
  0.8333351190533923  0.4930916654065964  0.0125863098084777
  0.6694222851929532  0.1912111940981776  0.8281435280197932
  0.8083110062023422  0.0023735988989587  0.8528180088706531
  0.8468051007633667  0.1421562475647516  0.6405722756416089
  0.6642860226908514  0.1813644743929551  0.5124350220359433
  0.8196285406077634  0.9986143905250094  0.4945468270544572
  0.7986914298895547  0.1622406343362246  0.3141455610182964
  0.8463749027974076  0.1576306214351504  0.9992321593075898
  0.7424967902220884  0.0575268573537807  0.1667806324007720
  0.0032386195071812  0.1612334990360005  0.1600011278375624
  0.3091320352552321  0.8305773138793765  0.8446978502001826
  0.5172468599243611  0.6500263530399846  0.8568420157056369
  0.4668130916634592  0.8187020524667038  0.6628898983531585
  0.3359777486408544  0.8293917391348679  0.5233451922466081
  0.4998743276092049  0.6654488246148479  0.4886466858377198
  0.4862929300510921  0.8550662905819184  0.3090046831794621
  0.3069361471058196  0.8237049965138928  0.1300026333960317
  0.4838657892401365  0.6570832838747671  0.1479464350880622
  0.4851543588675171  0.8198150773566104  0.0108864893869871
  0.3342533333328288  0.4789091809671928  0.8432177845838138
  0.4902783542904090  0.3158063589460091  0.8595064415042160
  0.5099821579657970  0.4905626633042467  0.6688222659562033
  0.3584758350671849  0.5259582879867892  0.5125274502268227
  0.5212283975643245  0.3370471507241330  0.5094987367096572
  0.5163286508270573  0.4480581650059761  0.3379885525199309
  0.3272753490474175  0.4777706502690278  0.1698939806674047
  0.5095345512735663  0.3217593336227103  0.1899858167543056
  0.4997241672237596  0.4688758842502893  0.0075235764018304
  0.3102855657977777  0.1664747908128237  0.8584679907394078
  0.5335179056914420  0.9928372438255056  0.8561759497414022
  0.4900240654306132  0.1489143252247537  0.6934522938269555
  0.3451413985096697  0.1802305995169324  0.4812847784099040
  0.4951667651128946  0.9890687442081225  0.5486303955063229
  0.5262798836180245  0.1560328748534559  0.3234599785537061
  0.3331704093452081  0.2001525588237500  0.1528168197817747
  0.4624478737935511  0.0054639587274710  0.1574297375110117
  0.5313210054067812  0.1535800359285447  0.0300005054059632
  0.9740501649815378  0.8522309353825979  0.8199276618402387
  0.1523885602129624  0.6700226638021459  0.8530765486984917
  0.1530801724708656  0.8031440762247912  0.6540433099722416
  0.0020115493581565  0.7963783164582542  0.4794695745701015
  0.1696009828531820  0.6644159608366106  0.4739259478732432
  0.1926311589009232  0.8335686188777628  0.3344510790988292
  0.0079964081929344  0.8071913216850773  0.1424673320132864
  0.1692506929650802  0.6542492646939745  0.1904415407712281
  0.1220495733525339  0.8228757743476238  0.9712741915990918
  0.0105441151872581  0.4947843603959386  0.8591194009852465
  0.1545848937018841  0.3190894422937901  0.8449606005106544
  0.1900768534173647  0.4816668446648500  0.6797786705050131
  0.0059080809215333  0.5310305430557855  0.5066724502421618
  0.1760155620525987  0.3450159546895651  0.5117307783301407
  0.1875729927545841  0.4607093293000346  0.3428146765392330
  0.9818661453806522  0.4869933076228219  0.1388090602502940
  0.1344054775519434  0.3323458634663624  0.1486968422825421
  0.1859157629843441  0.5093269220712956  0.0226462421296106
  0.0073896824531413  0.1485299972282498  0.8166953067111049
  0.1526429098008730  0.9877128498743597  0.8286224704193130
  0.1889406708729758  0.1578224210647129  0.6659377614692229
  0.0037908331505797  0.1993008874976726  0.4836920813699920
  0.1385401816190395  0.9844221514740039  0.4892057083780891
  0.1719747942579020  0.1634596297866336  0.3222700921130398
  0.1903254743197697  0.1461997582459713  0.0084036178789191
  0.1848854497869327  0.0162360635689083  0.1848908898557463
