Cl O  Li
 1.0000000000000000
    11.7780000000000005    0.0000000000000000    0.0000000000000000
     0.0000000000000000   11.7780000000000005    0.0000000000000000
     0.0000000000000000    0.0000000000000000   11.7780000000000005
 Cl  O   Li 
  27  27  80
Direct
  0.6574686179003216  0.6446671044089787  0.6705691541928153
  0.6426831032799504  0.6718228145784659  0.3317484993274603
  0.6811440402902389  0.6629304776843234  0.0091444626562061
  0.6743694951897462  0.3354162642220678  0.6472017852870861
  0.6901470238097310  0.3287805435922388  0.3259706442914287
  0.6782947985953109  0.3255090390716989  0.0221637329490754
  0.6938750822980971  0.9770265714896428  0.6623383893824050
  0.6550519223251289  0.0031684517168224  0.2950624022032702
  0.6748672633048852  0.0033522358678025  0.9986097111215214
  0.3376046489554319  0.6583819823636440  0.6586956741381798
  0.3335876663390714  0.6667391831092782  0.3440871972276477
  0.3348883815894322  0.6700533997372986  0.9903766057483495
  0.3315428292541229  0.3119482485872424  0.6764634655105222
  0.3287901857472976  0.3507357004286489  0.3406084478936554
  0.3349977731670740  0.3415108568627183  0.9913919633822975
  0.3256107045635377  0.9938384378098203  0.6673034795713059
  0.3286594786013256  0.9995660865094420  0.3143665339117894
  0.3390305855787187  0.0074905159352480  0.9762379821899333
  0.9749401954105820  0.6780149365716476  0.6693157663866672
  0.9884008173998473  0.6619636456096886  0.3222490634686520
  0.9838082866048502  0.6482534639625755  0.9959584813525352
  0.0014461841767800  0.3351333521774487  0.6801841961396901
  0.9847408743485262  0.3325503830236570  0.3354745335453297
  0.0035099037518094  0.3481106264485258  0.9926687017812093
  0.9935360918049130  0.0098533437747698  0.6764453280468717
  0.0159247436378536  0.0147996246952491  0.3397646104944002
  0.0109423788306016  0.0116193439246429  0.0023752046972169
  0.8421533820064386  0.8442043864889076  0.8435269549428481
  0.8340525753619165  0.8123323284891542  0.4657290931197258
  0.8321651455507917  0.8257759946826716  0.1628644822239254
  0.8435245418700845  0.4863770057364087  0.8279246876624677
  0.8366255041340448  0.5089694434105907  0.5013113960274742
  0.8256010031257262  0.4840912804623528  0.1823810408783685
  0.8516370083126676  0.1636634610919592  0.8342980628359239
  0.8265046374754538  0.1507746474415880  0.5160262231221004
  0.8508436562196002  0.1658583269847708  0.1712007722553287
  0.5036220358804722  0.8431376769079654  0.8398273981830754
  0.5029301807101094  0.8255338919312660  0.5036295906002974
  0.4926459959078447  0.8309572364752100  0.1429345978981131
  0.4804015075565736  0.4966744697531318  0.8409784793583202
  0.5018795438369111  0.4842270280418615  0.5062002521894692
  0.4885682244484682  0.5020332400682312  0.1763539779014879
  0.5081193981284050  0.1661656618529326  0.8367689683750182
  0.4970763548023366  0.1385185600203709  0.5036053398397469
  0.4996032111779597  0.1815173345671738  0.1639798552676081
  0.1657765227201410  0.8416940481605375  0.8526360102363673
  0.1697593052864597  0.8233395017420212  0.5169942697590333
  0.1584482384252754  0.8325760051060127  0.1417754601262916
  0.1689243038279226  0.5131549465458014  0.8284412814932259
  0.1804397815238638  0.4987671605926224  0.5174574633340886
  0.1629238296440162  0.5250271310673190  0.1629844404935599
  0.1566903720472919  0.1768585165044240  0.8537396425111692
  0.1574283805849795  0.1726377910625705  0.4961009237689632
  0.1617922826790647  0.2118962906485596  0.1735533186984808
  0.6806067179295945  0.8801082245223522  0.8206368280494213
  0.8450072795235090  0.6752238724107948  0.8510721398214351
  0.8524518986438199  0.8551054069969274  0.6764561781367340
  0.6584244379434543  0.8142693124420384  0.4885800706217464
  0.8176161466952553  0.6702645716355146  0.5349895081643850
  0.8159230468518137  0.8085019228844748  0.3171920511564961
  0.6572505229970069  0.8485829645440938  0.1436247830453161
  0.8431051130231680  0.6453559636590064  0.1367564838567686
  0.8554962395292199  0.8448140967625141  0.9991710293111510
  0.6583957337878111  0.4993129848893531  0.8125433087786873
  0.8115856019731202  0.3336249265314212  0.8086296651711835
  0.8373221770681896  0.4912480078326228  0.6583406170930582
  0.6563760786278415  0.4978166846236010  0.5400275530619868
  0.8518506093354795  0.3541748550317259  0.5011819236865052
  0.8114098952940065  0.5183535970646117  0.3323384527210191
  0.6690700360002002  0.4839880426670209  0.1513840142862246
  0.8221477595999921  0.3328894078464446  0.1657703630073510
  0.8250330737951714  0.4849751174466228  0.0211456463454641
  0.7035632408953130  0.1355718395796743  0.8272276908450431
  0.8586583119867084  0.0066771077496500  0.8343644589082158
  0.8297753727732050  0.1658131250245794  0.6586319501029437
  0.6720988304881856  0.1841925294847952  0.4993132791055895
  0.8556110561517929  0.9662975076996415  0.5135103382925693
  0.8187924907662988  0.1519419835089211  0.3381772585417064
  0.6727185406580459  0.1942399151243558  0.1983631625174550
  0.8410810044681056  0.0086292054121302  0.1506649124349762
  0.8470870960026403  0.2001389632350249  0.0035703466501604
  0.3220781906051529  0.8408407776607675  0.8206722932685235
  0.4784850901919359  0.4828382165394842  0.6732740249159185
  0.4915610678924322  0.8077023360382775  0.6799586114355376
  0.3190801852714223  0.8262646535805753  0.4733388927125677
  0.5050895105343514  0.8370614646434250  0.2970013294558312
  0.3182806186679301  0.8242621642344178  0.1701564511060801
  0.5224394519907644  0.8210590395712566  0.9777843730291264
  0.4890742515872338  0.6708891400545670  0.1422600502404971
  0.5107713949061343  0.6636156932474572  0.8445305884980255
  0.3316768966891195  0.4780713429176206  0.8311790668546056
  0.4973031540687871  0.3204065211587770  0.8413023626377923
  0.5018537141453732  0.3003118106077708  0.5118690192884334
  0.5080004519940189  0.6316434338581172  0.4720546550240500
  0.4833235825039730  0.1482459084944029  0.3133293381946892
  0.5058046853008361  0.4966236605636647  0.3304807189580808
  0.3193732996393448  0.5202327273667001  0.1748240545027855
  0.5007163170386862  0.3250995089075110  0.1611340649538771
  0.4974247317548190  0.5043620823038670  0.0181386077046420
  0.3411097947767012  0.1879606078008812  0.8260984717911629
  0.5026377141087459  0.9950575139147569  0.8660191912274432
  0.3321699887394111  0.1386051987976297  0.5040756588469506
  0.1577554622118366  0.2045741803787089  0.3560056160873100
  0.5047595949287990  0.1319592252377350  0.6622253946032791
  0.4896212904462626  0.9836766239545884  0.4984525997758019
  0.1752843289374532  0.1785854823932754  0.0167400139150893
  0.4922893599317357  0.9825115221758159  0.1432678333072802
  0.4985135463695851  0.1756611402629198  0.9949288488160782
  0.9988441156354866  0.8359813948772047  0.8605447540961622
  0.1868634800618681  0.4815096878124988  0.6811030530035530
  0.1793577684579666  0.8420355021079212  0.6817449896634672
  0.9901979773985099  0.8103113777960668  0.4682860301549299
  0.1766201652809318  0.6525468202298508  0.5332200528378078
  0.9809632882869509  0.8441297313929891  0.1738901977945420
  0.1567202705225282  0.6809885899313028  0.1417361487932456
  0.1572811553917544  0.8822507933868813  0.0140418991947689
  0.1870858461759308  0.6682073460151263  0.8439941770591044
  0.0160287810200316  0.4970570568770085  0.8150611773933053
  0.1599675850106326  0.3335788338922113  0.8530408643357077
  0.3417343631957536  0.5113499045438924  0.4977024456151340
  0.9832849051420827  0.5253673299669948  0.4890373128415415
  0.1426562160285342  0.3545295477081580  0.5164790929176226
  0.1565403027540189  0.5224012473789972  0.3327257766378581
  0.0072251533523155  0.5156947987380135  0.1835425065612612
  0.1282067606746731  0.3480501007606744  0.1360204388614628
  0.1525176926656776  0.5053328819486753  0.0042631152725848
  0.9960255048696079  0.1837350038671306  0.8427878532990921
  0.1516265075795046  0.9863544339766578  0.8666941639818634
  0.1745475754474735  0.1580030643514987  0.6793445287376580
  0.9779608093154226  0.1520685813857849  0.4848333888448106
  0.1625179330453700  0.9866670711683520  0.5157715294082054
  0.3135763962179393  0.1800446575381181  0.1826647019030714
  0.0118162968894378  0.1423026503160857  0.1639066981318573
  0.1590252769730653  0.9272983374069851  0.2493091521848425
