Cl O  Li
 1.0000000000000000
    11.7780000000000005    0.0000000000000000    0.0000000000000000
     0.0000000000000000   11.7780000000000005    0.0000000000000000
     0.0000000000000000    0.0000000000000000   11.7780000000000005
 Cl  O   Li 
  27  27  80
Direct
  0.6719413714742191  0.6457459172063083  0.6643164384005860
  0.6570488539153923  0.6670782060108832  0.2954310549630481
  0.6749604089784104  0.6728587938120854  0.9979332287539066
  0.6634926737021338  0.3350476021580258  0.6798425121394703
  0.6762268735719671  0.3186333797387133  0.3444343724774557
  0.6661391644641123  0.3111207451297130  0.0024498758156814
  0.6792146158542793  0.9956054794866934  0.6588701386292091
  0.6573852067011243  0.9967115313973234  0.3337580055091599
  0.6801260234027143  0.9950136052502085  0.0048736715196413
  0.3165594714233761  0.6490983925467164  0.6668428494366998
  0.3302408274586160  0.6702942860052234  0.3156122625923784
  0.3384488192259384  0.7002476999427926  0.0233436424744641
  0.3341369408836184  0.3305303210884055  0.6414474853765545
  0.3187701367474144  0.3344272644643114  0.3374289390841091
  0.3137207964204410  0.3443835376888154  0.9712447143636512
  0.3211792817936543  0.9833737861064229  0.6675546639141601
  0.3637205206014401  0.9853496031584482  0.3486211711457844
  0.3538294491296350  0.0253103702561674  0.9960847732664191
  0.0030484613025222  0.6954909071880024  0.6829146260160852
  0.9925167249820011  0.6525335390942099  0.3382384448557403
  0.0286886574000286  0.7055700738743612  0.9935147565971759
  0.0031052025534216  0.3393760187903038  0.6480694004815959
  0.9780346889944955  0.3346270194769260  0.3345875718014134
  0.9988465558830274  0.3181903883832150  0.0337799967506422
  0.9899762515917803  0.9939135318959736  0.6602802049718017
  0.9928070268791021  0.9917085092259449  0.3443820248424110
  0.9990809312981039  0.0082768905975181  0.0141378941051626
  0.8153808954726537  0.8336528746036657  0.8291692220234635
  0.8361369554376376  0.8161662544033151  0.5023921669052869
  0.8461218720896697  0.8202777097237567  0.1894474176732893
  0.8377959665659145  0.4944718591044878  0.8129108481896923
  0.8359209252902295  0.4842239897149339  0.4954056806837895
  0.8556336762412130  0.5046526441697810  0.1584695103159868
  0.8173169887465194  0.1588101188346463  0.8241502457539406
  0.8458461664480189  0.1544323403663062  0.5088367154294072
  0.8450056893377884  0.1592890814768709  0.1684294171060323
  0.4991995603861843  0.8365857186701072  0.8336548435025156
  0.5041157846852946  0.8171085118341201  0.4852758667496033
  0.5130229797248829  0.8406536116894597  0.1463322273302211
  0.4809625026272966  0.5346477985649921  0.8353106157979978
  0.5017159310406346  0.5025672811894885  0.4839178241587758
  0.4732565501858613  0.4853214277220159  0.1449971197241213
  0.5034756293834176  0.1485627049059541  0.8361015387664694
  0.5030624352896308  0.1723134402797013  0.5152157990456643
  0.5049775976065607  0.1772279439488895  0.1853779052375395
  0.1566045317234987  0.8603666865237227  0.8455232223954994
  0.1607815632866809  0.8317859304099672  0.5036240164733500
  0.1807362449260777  0.8541625403637908  0.1767156266853472
  0.1455160536461318  0.4934402098885485  0.8528332680131895
  0.1709455975136138  0.5042326080417154  0.5205905206122777
  0.1737785438310433  0.5001999373290055  0.1684510565576421
  0.1454717423649590  0.1737352676338798  0.8103090938056909
  0.1665302789489124  0.1631960854771455  0.4956792405987138
  0.1774414005667107  0.1773980231560224  0.1708842701800879
  0.4995239699759857  0.8231686918763266  0.6485645775304991
  0.8316521436667842  0.6632865854289207  0.8499019623923254
  0.8505699231083028  0.8128877459068568  0.6500205948133669
  0.6507847893487578  0.8242102195322899  0.4947432584064487
  0.8304400914641789  0.6440677564791324  0.5045171246164949
  0.8290749234412030  0.8147733133891247  0.3524451800556943
  0.6619441877429768  0.8038681633692917  0.1530800723028624
  0.8844932148877743  0.6638072682860823  0.1697253348353160
  0.7988970179055498  0.8371703279895549  0.0014269531033366
  0.6309978286413652  0.5365960779472481  0.8343847954436262
  0.8143894077833692  0.3422202402943999  0.8193895663997970
  0.8052992186908792  0.4919016833402352  0.6685954628327444
  0.6617681571805835  0.4832274413494075  0.4699985353693535
  0.8523431840634138  0.3159596625385543  0.5023825718631325
  0.8233637276326279  0.5207999665241033  0.3267393941148798
  0.6541796124279570  0.4748997139822053  0.1851025639645780
  0.8528779963286425  0.3342239264929177  0.1562518106519724
  0.8072495628290415  0.4747704035828759  0.9986505278973901
  0.8649257255876340  0.1683095951788645  0.6736956933200049
  0.6557104062629731  0.8097171616348423  0.8166640886030374
  0.8276979336785266  0.9938330854886811  0.8365502790501783
  0.6760742840619257  0.1640559854627921  0.4991439414954590
  0.8357270811474652  0.9840436539036843  0.5157429595684154
  0.8448445574062508  0.9877242622264387  0.1749841466732882
  0.8490657281876135  0.1752957777597874  0.3506279114599850
  0.9945602511088902  0.1442549560754474  0.1687106894915491
  0.8041294332562449  0.1627883872777572  0.0131656572283016
  0.3275203698526883  0.8799056740952693  0.8426264913147188
  0.4552137009384272  0.6877184372180457  0.8696177902344637
  0.5135248368664252  0.9940835988410878  0.5022043955740129
  0.3369953120384865  0.8185214526408180  0.4893321404563047
  0.5239316114899703  0.6527192861549871  0.4830621650198198
  0.5153036038372872  0.8255114206075698  0.3131215394451214
  0.3427059612940276  0.8403643029500713  0.1889837180306098
  0.5015627342494442  0.6369352798694128  0.1530875722250527
  0.4974731410503670  0.8615018974182732  0.9811198598873236
  0.3013684346944007  0.4998764589036325  0.8578665761178291
  0.6601535990324140  0.1561656827072221  0.8371012854793805
  0.4901832166814140  0.4668500404104300  0.6697984058181145
  0.3535193308895402  0.4908429088996402  0.5274102474302568
  0.5347023094634125  0.3335365854457626  0.4804943778947533
  0.4773565886207014  0.5306301074539579  0.2923835359729682
  0.3201822476032088  0.5009993217481531  0.1088382337294448
  0.6762245254181908  0.1718386273919949  0.1705219257611782
  0.4904162102155843  0.4070587578952434  0.9191042659346130
  0.3291793809809654  0.1851558576502881  0.8397640108907423
  0.5223007782070073  0.9826571981460975  0.7892979757581228
  0.5041214526426854  0.2043373995375271  0.6680927959830034
  0.3471625952195667  0.1696085897993031  0.5083049800553336
  0.5082468754295542  0.1460988134641308  0.3522510525150606
  0.4833040167962417  0.3223483411969658  0.1680821939877331
  0.3463268549022983  0.1794156742882002  0.1842817222781654
  0.5118154618881903  0.0035443925679033  0.1330424664225681
  0.4861804242012355  0.1621716831495845  0.9895602423357591
  0.9920251353199686  0.8563293195034605  0.8649540329517020
  0.1645164739306783  0.6623080125854049  0.8276727193306617
  0.1748581075296395  0.8416992688572361  0.6604166408032794
  0.9945030277551993  0.7999816449864435  0.4777162690650795
  0.1838876697207533  0.6716255677400846  0.5328241588736864
  0.1779598972117360  0.8156555714424072  0.3357044832906736
  0.0180262566329910  0.8431719661289969  0.1751403596275187
  0.1733098442402369  0.6661533977917600  0.1555431540364870
  0.1507154329023208  0.8724576542005238  0.9979404245610840
  0.9832887260844336  0.5060390670329723  0.8124841319689875
  0.1462053582356687  0.3220067455506473  0.8317799641684702
  0.1570284848149755  0.5170100868147679  0.6719607315626915
  0.0239687443233503  0.4806656865504212  0.4814994281963659
  0.1991068033242229  0.3405451564583791  0.5060692947479561
  0.1832370691831132  0.5285627604810860  0.3162578834245965
  0.0040279618312515  0.4858416652396684  0.1620773575009063
  0.1752640142496382  0.1635118311892211  0.9902805555863829
  0.1453978868558868  0.4810736580263265  0.0049732890337066
  0.9682908427159154  0.1792481254191882  0.8466651538680989
  0.1448455039227468  0.0146392828383608  0.7887768475614518
  0.1695287498648572  0.1448408811707178  0.6539585296668313
  0.9984609079989013  0.1847057408626414  0.5169785742796025
  0.1288837464448571  0.9923940682824783  0.5046446131723772
  0.1276051362283202  0.1627568795074761  0.3538195787521350
  0.1925421143461233  0.3413232050664914  0.1676893640551430
  0.2083363836831158  0.0227978280032940  0.2077464383520811
