Cl O  Li
 1.0000000000000000
    11.7780000000000005    0.0000000000000000    0.0000000000000000
     0.0000000000000000   11.7780000000000005    0.0000000000000000
     0.0000000000000000    0.0000000000000000   11.7780000000000005
 Cl  O   Li 
  27  27  80
Direct
  0.6549641188330866  0.6765467350942507  0.6722763468832810
  0.6738846107970708  0.6535958396005127  0.3575657252834852
  0.6349607636095966  0.6582519856262068  0.0327386600561341
  0.6628250899091592  0.3435528618828325  0.6630047426688764
  0.6756809079504343  0.3222211398739966  0.2998287939245817
  0.6690773732215028  0.3279613434787896  0.0090267210916252
  0.6762506996098460  0.0067421039284839  0.6568457377410208
  0.6760099328769683  0.0218991645423412  0.3374600027009770
  0.6714216808837334  0.9871122025734234  0.9946249069439042
  0.3435203459316885  0.6655696425009648  0.6594582612440644
  0.3239905890336069  0.6750052531110121  0.3027468810591025
  0.3227003999898289  0.6670127449380636  0.9765261182464626
  0.3474457303080732  0.3349139434121723  0.6853399360483373
  0.3544795034883736  0.3364168225570388  0.3559608836336999
  0.3444978256691359  0.3424916583176415  0.0073931613693370
  0.3341711311864405  0.9890486425036115  0.6764754531162297
  0.3053070176885567  0.9891511907818055  0.3524433897624007
  0.3261659510801827  0.9797305774858005  0.0074190922743997
  0.9815871929981678  0.6787806795290010  0.6406819378248554
  0.0001397186459127  0.6645752803475747  0.3429438122046576
  0.0032938491232337  0.6539190346280161  0.0008134216238021
  0.9912328052250501  0.3229689863662982  0.6666954331238735
  0.0434163339257655  0.3171741477007993  0.3124744926882990
  0.9852295868894517  0.3291262099361168  0.9960880699016252
  0.0418304014927574  0.9990812561082956  0.6976815084126301
  0.9763511997493698  0.0038815677530612  0.3388151505849942
  0.9983645273195714  0.9869191314489552  0.9938428382611023
  0.8298029122140649  0.8349727432879689  0.8244461851653021
  0.8193048834765285  0.8257642558276516  0.4992636884027875
  0.8287800888174913  0.8162984431017937  0.1678180379953619
  0.8359691640302989  0.5152846834492428  0.8353118214250393
  0.8372519037586488  0.5101636839466861  0.5098899749189949
  0.8368379809274832  0.4951701552900738  0.1542108006243587
  0.8324420751168451  0.1782400425468743  0.8209318896413875
  0.8302370777501975  0.1919885638771948  0.5020917967137297
  0.8381647687818415  0.1563411199448625  0.1424347082233196
  0.4957599000896160  0.8488849876160627  0.8344794413967955
  0.5045135744547343  0.8331613450767000  0.4991097223888083
  0.5015736049561442  0.8306348125843563  0.1705992642016007
  0.4994237082324169  0.5293151451743440  0.8076721081797908
  0.5043841425991752  0.4956258590642914  0.5110750233531741
  0.5107598659264078  0.4947132774389681  0.1758622865222060
  0.4866086185135356  0.1836635895178681  0.8308148640312061
  0.4867698719013029  0.1660169203706960  0.5197581721341873
  0.4993383245028660  0.1688567694505192  0.1701105850609918
  0.1729511236396491  0.8207728096368839  0.8327129819905537
  0.1649004379326255  0.8503020579345741  0.5027425591930095
  0.1394869465301823  0.8148557860042039  0.1813440717553899
  0.1739964974095560  0.4881391756030589  0.8425175766267398
  0.1630548599140199  0.4978602893239610  0.4930971127032741
  0.1698624309876663  0.5097130813341201  0.1534235517068388
  0.1829957360286292  0.1634690520673170  0.8315447350014968
  0.1708252954921276  0.1653658441294892  0.5088710786071848
  0.1652049185793869  0.1807753603731737  0.1406944833627148
  0.6740920175521629  0.8427475614117019  0.8560892576864683
  0.8636009421352004  0.6716965020133326  0.8386876568469795
  0.8398938196693045  0.8122497401667498  0.6660508244269037
  0.6646121159036478  0.8191834334136934  0.5264010991669844
  0.8241547117033471  0.6528247544829091  0.4858168238618853
  0.7841152890451403  0.8255499260674609  0.3350402302346294
  0.6819229889394746  0.8189952572283198  0.1648135448746894
  0.8573064325402955  0.6594473173545093  0.1669103044978783
  0.8416884569208608  0.8247861283236452  0.0202379521970812
  0.6706206365627786  0.5124557249446917  0.8395545304444870
  0.8296296346595472  0.3449423616371787  0.8259562909558417
  0.8279174257026169  0.4852149144435232  0.6689774742256256
  0.6685720748201162  0.5047514728904737  0.5011663002426376
  0.8279143488114618  0.3545655006660404  0.4958363960248212
  0.8268748454259955  0.5112831055313621  0.3428813837025393
  0.6595594152876498  0.4951046094113907  0.1731257157231245
  0.8453102816935600  0.3376330447568672  0.1821202985200553
  0.8588630155814396  0.4886562552587364  0.0054828610971065
  0.6621101580551341  0.1710269190005660  0.8391098387017716
  0.8056847818665189  0.0071230286202152  0.8247967888153309
  0.8533969994154248  0.1733355590166447  0.6544289611950084
  0.6573706120849759  0.1680376585153812  0.4990125978903766
  0.8054420313485544  0.9978609356305149  0.5063617524140630
  0.8348273135285190  0.1615796384711053  0.3443618541730073
  0.6838445884365838  0.1750763911583985  0.1289809004346138
  0.8151130241319582  0.0240604199538932  0.1796748178183996
  0.8615893030863977  0.1698683885098936  0.9772653286947577
  0.3191673394784101  0.8340370444935733  0.8539017500169124
  0.5151404277666808  0.6814578987171193  0.7958937688385003
  0.5266648831022750  0.8645737317320622  0.6512988722113678
  0.3379636626901266  0.8342107269021903  0.5124041998467186
  0.4981597132488663  0.6611451944763233  0.4979736208152393
  0.4769915927815738  0.8528648653542186  0.3309086131800407
  0.3213969317315925  0.8161746387182154  0.1601160126386903
  0.5027826612384144  0.6594265888246232  0.1670821650630483
  0.5022219383108280  0.8574472469630130  0.9972702214149485
  0.3303808668657107  0.5037795801395971  0.8235304051925941
  0.4837499032326831  0.3507412488436710  0.8290859750853828
  0.4895618672265840  0.5161736620805744  0.6649012816972366
  0.3434705488774696  0.4986010103841143  0.4828338993433552
  0.5016257096787294  0.3138773802844605  0.5323769076148885
  0.4682069470778560  0.4934311854771770  0.3302325068341422
  0.3143287257101432  0.4669185050736722  0.1706118146786803
  0.5041763309899838  0.3363455277501449  0.1421099949929436
  0.4786718587500663  0.5379549745667277  0.9882623249277025
  0.3416236449616887  0.1603465237339818  0.8367147218500739
  0.4931254739797982  0.0128863873491522  0.8405911188804384
  0.4561802702320302  0.1817474353083949  0.6800978851700780
  0.3243594111181060  0.1638584306187101  0.4933147622670796
  0.4721590923102071  0.0150534435608463  0.5108456735058977
  0.5087605344422250  0.1793971762909040  0.3306461867528483
  0.3212466296472125  0.1970024997131810  0.1799288840084406
  0.4761562573184048  0.9900500465879920  0.1935696736629267
  0.4789147712096705  0.1732189812787397  0.9971243942335350
  0.0037208319783180  0.8459409695764791  0.8156088679432599
  0.1927869704795371  0.6776659542518771  0.8225216707186774
  0.1648957821104831  0.8504764690805700  0.6590483869538922
  0.9913055998898652  0.7862151924545661  0.4843838427772700
  0.1842896092447112  0.6901729500011603  0.5171154060299229
  0.1641487453263802  0.8393075971004266  0.3277140309383754
  0.9916299481189673  0.8378169243066552  0.1808540768389583
  0.1467216994067478  0.6489526893914076  0.1511532918593775
  0.1433783332835749  0.8466178046597564  0.0361810079459195
  0.0129544384214535  0.4885238679682521  0.8219851580662315
  0.1943026025285328  0.3037598131867794  0.8699006123730066
  0.1550572505794198  0.4612447987546959  0.6426305006049807
  0.0184658766870760  0.4934012262738258  0.5103460025764918
  0.1821786392426355  0.3316473376262343  0.4688699956321856
  0.1701064365533388  0.5165629697825000  0.3284065338752971
  0.9940243159905813  0.4656204618603670  0.1610228756998603
  0.1362091870138075  0.3318270523609315  0.1537882847649346
  0.1613700393369099  0.4765445185666392  0.0031890501275852
  0.0063571738703857  0.1519257608947512  0.8396878084139899
  0.2025226184626056  0.9873430630325579  0.8438845260077527
  0.1749746046708574  0.1572302099110715  0.6701427252943470
  0.0190958005667612  0.1956284046573147  0.4934086074473067
  0.1572447177635659  0.9985331942810084  0.4803546133244046
  0.1613560010210152  0.0556836976399399  0.2249467975262363
  0.0010793220287845  0.1540083809885206  0.1249132300850160
  0.1771751283997073  0.1444170331278096  0.9830961209346163
