Cl O  Li
 1.0000000000000000
    11.7780000000000005    0.0000000000000000    0.0000000000000000
     0.0000000000000000   11.7780000000000005    0.0000000000000000
     0.0000000000000000    0.0000000000000000   11.7780000000000005
 Cl  O   Li 
  27  27  80
Direct
  0.6385636087736499  0.6737378657538081  0.6424304161271138
  0.6910866266141981  0.6616800961131529  0.3305059194681589
  0.6781401212546707  0.6712246934467426  0.9828200984794038
  0.6777187086226674  0.3486521291210358  0.6649413566710984
  0.7025856975977635  0.3419124419584962  0.3248673342423005
  0.6459192409629259  0.3438582517307461  0.0188062091916794
  0.6948583283744733  0.0127284596354426  0.6506810592738016
  0.6790420552171814  0.9928323293875785  0.3406583242610884
  0.6450781160861363  0.9801795880602863  0.0035118989263463
  0.3305697798370761  0.6653574263828717  0.6780187918463523
  0.3237931092525617  0.6614966567207416  0.3758208744386408
  0.3152836428801656  0.6420801779996554  0.0245482713298221
  0.3458530018444712  0.3416338618527402  0.6669757485202840
  0.3073879758077794  0.3260942457442326  0.3422432470891862
  0.3133763144900581  0.3275270446445033  0.9811880379824521
  0.3411883943681009  0.0153112326880300  0.6711880125114613
  0.3178549927213063  0.0001729259914478  0.3149604532179160
  0.3363749422821081  0.9838132117996430  0.0085301619568114
  0.0059805758818553  0.6697197697886744  0.6694876252942314
  0.0138492537352597  0.6443078471958661  0.3290960353099109
  0.0078257749823273  0.6764830194597955  0.9835203910622307
  0.9884300829889043  0.3340796284850326  0.6675531514367633
  0.9956228670448124  0.3319434765579780  0.3438070770187084
  0.9745977821634015  0.3502631245531311  0.9951421280935122
  0.0106782276763307  0.9860387340039580  0.6736736142543616
  0.0035087859895877  0.9850053957873232  0.3225243221131878
  0.9794776568902364  0.0034529555374093  0.9909966223292703
  0.8421239260387243  0.8324166648471547  0.8281895010712403
  0.8419491100386292  0.8211328143027986  0.4971722470290321
  0.8309997499511481  0.8420490345494812  0.1547163363562322
  0.8287507044584923  0.5216284721888184  0.8408973854246163
  0.8292728043050018  0.5073048151249748  0.4975110289393601
  0.8588407566545888  0.4770700680737741  0.1731864989841677
  0.8378324725857160  0.1685506676667891  0.8187674125881110
  0.8367914307546723  0.1746371328613953  0.4861560050443399
  0.8515048813453606  0.1645984819490281  0.1582523624239288
  0.4960201078678752  0.8355942027312377  0.8414494444744769
  0.5015869327046257  0.8555376395480254  0.5074273228215542
  0.5099008545470405  0.8363671501776985  0.1674316902677411
  0.5051775027408558  0.5274910834305468  0.8525011516782712
  0.5143124282113229  0.4800208876622265  0.4883492211566968
  0.4855196500057428  0.4994070023258622  0.1846446797036997
  0.5022326345076636  0.1880277631678990  0.8316885740810196
  0.5186935568473352  0.1871083395082969  0.4861579888294268
  0.4947012956392738  0.1873671424913003  0.1471661920149281
  0.1581881471985195  0.8305287492111105  0.8325998196878149
  0.1535029528911977  0.8155710096568799  0.5060172969643715
  0.1623793385338261  0.8086592595021207  0.1629333563699698
  0.1417119517379504  0.4828128020166879  0.8415720342957572
  0.1710855437557967  0.4997095902797092  0.5239038320440502
  0.1729455447016914  0.4840347731447270  0.1723103947131950
  0.1509890417254009  0.1677813133004600  0.8403743139282686
  0.1584886400324024  0.1499455368034860  0.4958463498536922
  0.1798523758791436  0.1830610130771909  0.1642803768079428
  0.6631710862710688  0.8215782347828929  0.8294277068486632
  0.8582030304773078  0.6722138329822510  0.8250546348092279
  0.8522196107723363  0.8286809951017208  0.6522153348540719
  0.6712156181957825  0.8558770692249122  0.5021678632170230
  0.7728261834461061  0.6662523158840538  0.4990942918656506
  0.8441779937971378  0.8507127503337261  0.3294371856167201
  0.6783029130880155  0.8272065974427431  0.1854386390779162
  0.8296303714455393  0.6417366592963651  0.1660518564050166
  0.8093238614724632  0.8616434871326376  0.9804107661881428
  0.6702958301674908  0.5007099442737694  0.8756228551165209
  0.8278855312482019  0.3491673869332664  0.8500608531090872
  0.8374015458823781  0.5281575947342910  0.6619830472818081
  0.6708245291358195  0.5002587748654644  0.4976536995239676
  0.8393998247459025  0.3474626272917637  0.4641193915631425
  0.8469117306175239  0.5161149261515412  0.3338003184880166
  0.6372298169433729  0.4943385123999899  0.2050929088542499
  0.8614908506180514  0.3219623452917744  0.1588918598378944
  0.8333277419931753  0.5040319745859071  0.0325925350386950
  0.6686348352541270  0.1968981974552671  0.8085427413384495
  0.8443938620029062  0.9956652244656610  0.8056914348876147
  0.8296244605756887  0.1896866933253562  0.6447881649454424
  0.6934552660077992  0.1634007818242444  0.4457807559107303
  0.8455565220053920  0.9980392221665251  0.4819799350096437
  0.8770120661077438  0.1593931513375788  0.3217583988853507
  0.6919682369009217  0.1748823529893658  0.1575879158760913
  0.8450091592630836  0.9939051611216039  0.1503433048022069
  0.8241258941400873  0.1698539436193282  0.9861537177401350
  0.3227979778763831  0.8252680750442813  0.8114625491028925
  0.4917915282564945  0.6858372948812853  0.8470534349175469
  0.4622386364794028  0.8643368195139094  0.6809531338729615
  0.3012755493440529  0.8619622692504583  0.4747936532901219
  0.4884443565047879  0.7027632731248691  0.4967255310158198
  0.5054388360619800  0.8804393245194350  0.3472150578561360
  0.3203799057972527  0.8594989749684315  0.1492675467321445
  0.4611410365306811  0.6675998322682983  0.2078649246297287
  0.4909336424199922  0.8321325382402376  0.9920976597423293
  0.3399025777485958  0.5166065404843704  0.8730400479043687
  0.5078405520354971  0.3599634692587371  0.8623131956298852
  0.5378440464251546  0.5013477514218704  0.6862521882084082
  0.3377289768173521  0.5303943326623268  0.5432107572458549
  0.5273758554347396  0.3308461195217158  0.5144858730727342
  0.5179505686042256  0.4637978980767375  0.3382510617864103
  0.3178719358653637  0.4998960255924554  0.1688165746853547
  0.4807803469480443  0.3337306442514013  0.1301948701122182
  0.5072197892449785  0.5054309074407679  0.0160304940618680
  0.3206819674407705  0.1798810055831019  0.8562483192801262
  0.5018476992300107  0.9994173545350094  0.8137402582657814
  0.4629487910550558  0.1688340655363274  0.6732401774556077
  0.3283025968807698  0.1653869656715510  0.4813633017309383
  0.5383296689173135  0.0143308734258009  0.5244161344213557
  0.4719064714008318  0.1919954345549598  0.3341557196591227
  0.3287079975331443  0.1343068832609274  0.1574668138936261
  0.5125696527698924  0.9957126417368772  0.1364020121924854
  0.5061115011480340  0.1922468489506502  0.9804705719947988
  0.0049238674623360  0.8255260480763809  0.8402765011778679
  0.1658289282513134  0.6497852802474822  0.8355183319191400
  0.1439913511667043  0.8244662210151276  0.6734331714047634
  0.9891069155418435  0.7490304854224094  0.4843988977677927
  0.1743596798279825  0.6632675290366666  0.5254161645321364
  0.1558352161439729  0.8373164520698319  0.3257955229931532
  0.9827121400337299  0.8297649514672948  0.1127378346251772
  0.1509022308851499  0.6585430436390037  0.1783389556502432
  0.1824170253849402  0.8127345208660813  0.0021251689433657
  0.9956675183401702  0.5090219633019173  0.8127567866876637
  0.1551792816535741  0.3252115625941458  0.8298516700614923
  0.1574851585404248  0.4535492189789848  0.6634378904877880
  0.9903724894563816  0.4770362222710693  0.5141618683370321
  0.1331145004484151  0.3315073069940536  0.4969543950381770
  0.1911998897306209  0.4792910166919356  0.3456577055922033
  0.0164416344816920  0.4574452514331674  0.1575564485912201
  0.1639566703475613  0.3291268256180469  0.1681245879374097
  0.1483118832653977  0.4875285830512149  0.0085954750443875
  0.9971295894569921  0.1409353367596732  0.8542844530150460
  0.1273197832391460  0.0030125141301523  0.8092687257093866
  0.1371833954816634  0.1757057654993093  0.6726420460092423
  0.0162587783322178  0.1617491694046328  0.4831170082330511
  0.1075662432376540  0.9889727508821189  0.5024531234154183
  0.1784705076245700  0.1432986725645727  0.3336783359478854
  0.0146396149686683  0.1803336122234595  0.1689855607864195
  0.1554311717528312  0.0863295470050683  0.0228544300973112
