Cl O  Li
 1.0000000000000000
    11.7780000000000005    0.0000000000000000    0.0000000000000000
     0.0000000000000000   11.7780000000000005    0.0000000000000000
     0.0000000000000000    0.0000000000000000   11.7780000000000005
 Cl  O   Li 
  27  27  80
Direct
  0.6712257513916541  0.6696792028280514  0.6989697764875508
  0.6772241506983012  0.6729328127974004  0.3572936856595482
  0.6678881746821016  0.6709890677810572  0.0051691585071323
  0.6757531942991678  0.3247901696249781  0.6642792457044195
  0.6556648197148163  0.3230174552229012  0.3320382999042498
  0.6657790062807679  0.3131916664746147  0.0112214347219261
  0.6459094553371100  0.9865674855295180  0.6778899951847347
  0.6665685527453016  0.0107288340521687  0.2993551774445830
  0.6362654663221321  0.0307875012018121  0.9947529036555253
  0.3579000546948820  0.6551191919410128  0.6328477094501586
  0.3581002550470058  0.6328295851331377  0.3426058218479379
  0.3251904952625283  0.6668168033748948  0.0050981202132654
  0.3520182128834349  0.3242555193013891  0.6443745939103487
  0.3304694081065327  0.3345430239072685  0.3427939170624915
  0.3350707571298811  0.3214344149663654  0.0202545811369881
  0.3345014512953887  0.0046191950721746  0.6533151084423127
  0.3406497478323167  0.9950656539422045  0.3166702812057478
  0.3004789905042838  0.9963827626206659  0.0014703160934404
  0.9811364584573161  0.6644524554347468  0.6715760525930615
  0.0119688979412182  0.6584554731174473  0.3135869123851713
  0.0112325315929711  0.6700090374627838  0.0144882808899855
  0.9909628943395770  0.3533983141185540  0.6681116755795957
  0.9910780070117101  0.3320037789962055  0.3440885999867722
  0.0060387241413242  0.3397252980777605  0.0174154203091337
  0.0076053690720058  0.9876411573357997  0.6623501159210625
  0.0138197011080435  0.0019749044391925  0.3345299339732304
  0.0210868752069518  0.0113363201585671  0.9848819395155977
  0.8274339688291856  0.8559623714037741  0.8513690051022583
  0.8415595712676320  0.8159780089030776  0.4854158382073083
  0.8290998624771515  0.8550826234459074  0.1403199245594722
  0.8372131386279333  0.4910906912643922  0.8394181169438288
  0.8534867349758398  0.4870889918902818  0.4901966792955993
  0.8141872236695877  0.5067630387893685  0.1632524902838624
  0.8171655733367952  0.1572888102415105  0.8328959174034551
  0.8185681498785502  0.1358473626504009  0.5089334889547128
  0.8330735864329974  0.1800979460723643  0.1757180795801356
  0.4946429275215371  0.8404920055889588  0.8542740761774853
  0.5047260212926595  0.8247083636720739  0.4730317966479947
  0.5002458248585389  0.8416392811356698  0.1667500046053591
  0.4848993443981216  0.5060184716152714  0.8470369042976763
  0.5335063299919799  0.4968849226487420  0.4992865849902197
  0.5098293691564850  0.4967850451424347  0.1684887011417389
  0.4732979262982429  0.1731226135813036  0.8365073779112111
  0.4971372336275734  0.1567987343542589  0.5003625657300367
  0.4852097865214958  0.1751072083762703  0.1580370585626344
  0.1599541832299929  0.8284807941697278  0.8319126887377969
  0.1774607526160883  0.8261414662129192  0.4877505103419746
  0.1533455675821148  0.8435480872432397  0.1606527905344154
  0.1658256607764969  0.5156411248192140  0.8411780177136617
  0.1771720916432585  0.4963487743649856  0.5085692012361264
  0.1779427516640579  0.5011430161239646  0.1679501642187963
  0.1732294402395370  0.2031090231279690  0.8353287666572113
  0.1722704623344294  0.1721772185312289  0.4926738195878235
  0.1559291136529981  0.1639069197180181  0.1712603727912332
  0.6580045120403144  0.8287923698845803  0.8530791088178722
  0.8396024255806005  0.6716652146123657  0.8787160898045038
  0.8106526854407061  0.8654538518795303  0.6826401483322955
  0.6663181099994497  0.8045127837222170  0.5059343702722091
  0.8643165821331957  0.6556345307240633  0.4861931580780419
  0.8408790924974605  0.8159220580665487  0.3355991536495884
  0.6479485030084380  0.8729260820494164  0.1508608880742436
  0.8022402221105119  0.6605120914566867  0.1836635841921506
  0.8505486278061068  0.8534163249438421  0.9946972963123963
  0.6627368111220945  0.5243172291388987  0.8537807209720290
  0.7881863598184689  0.3198564353860712  0.8270682855559095
  0.8229586306442571  0.5241877972833395  0.6802596062281741
  0.6706832064131280  0.4879658653840432  0.4879296987663426
  0.8278653003866229  0.3143267963983453  0.5284787112793892
  0.8628867184251453  0.4645533147608275  0.3185932976922048
  0.6592051878427283  0.4983615470052662  0.1689250528900079
  0.8101666176090382  0.3328425962046289  0.1517966475967540
  0.8332504267035895  0.5117416511051871  0.0080619767363012
  0.6559166389646059  0.1425931631098405  0.8366877808978772
  0.8358104811153586  0.0029574192332082  0.7912041232242003
  0.8253601441907243  0.1552127487841503  0.6612336497713115
  0.6723387762815606  0.1260747919734726  0.4833673574354657
  0.8510214973941362  0.9824259470191575  0.4657987947654089
  0.8059835031130133  0.1349024635465979  0.3359227130457812
  0.6640720604271291  0.1827034048713744  0.1443046706681726
  0.8348317868156131  0.0053591934045020  0.1457182896054870
  0.8996211551287965  0.1655305061126029  0.9903662981026505
  0.3270758400750416  0.8631459406008304  0.8596076240821956
  0.4980230948823401  0.6799790149985505  0.8410134040368697
  0.4607709712418622  0.8420165241854352  0.6451223594318305
  0.3504076627908488  0.8052237075206587  0.4739006540305892
  0.5013844365275237  0.6555415762228547  0.4760259761104865
  0.5103726428723899  0.8390105634686525  0.3157545214757448
  0.3261452626850028  0.8293237813753743  0.1500893981025405
  0.4904502584687680  0.6631924280213698  0.1851847222568973
  0.4929038767378205  0.8225960778941754  0.0163951373720335
  0.3391901678333747  0.5240007546894442  0.8408134870826155
  0.4817739517220336  0.3230490743280597  0.8165415931481400
  0.5534658800019214  0.5038924612834051  0.6707147659821248
  0.3508010595191779  0.4923120551112822  0.4938899203314221
  0.5275943265501318  0.3168485718550217  0.5125874996283095
  0.5140573010013069  0.4505125697416031  0.3336816836642924
  0.3513769239900796  0.5143717857615520  0.1646329111850308
  0.5077778114934876  0.3364555141871426  0.1585293611474324
  0.5096967794389510  0.4662947136983203  0.0015171864953303
  0.3283806241091008  0.1782745641797550  0.8724593935824774
  0.4802780563103808  0.0103628750452534  0.8809474836584283
  0.4477595677702106  0.1529826403419912  0.6539714579081632
  0.3370093402564577  0.1441489668068432  0.5009393208799571
  0.4797220296903466  0.9968942012037953  0.4956816021480531
  0.4950366076477357  0.1862720318154203  0.3319642520894805
  0.3260069847673731  0.1590716662387758  0.1843510871809455
  0.4948627228120690  0.0176236372673633  0.1757609738719607
  0.4925842849118012  0.1927825715577332  0.9942867514826221
  0.9996256787221741  0.8779982561475926  0.8146701145885289
  0.1356767529157088  0.6653431749387058  0.8325667710206912
  0.1802995693179582  0.8652847848076459  0.6630045625726463
  0.0051645138284351  0.7996532389970145  0.4777688730081469
  0.1926600483686902  0.6754840818752139  0.4909875212932507
  0.1568940429133660  0.8446981157978261  0.3238125755273764
  0.9902212775397291  0.8158332330771536  0.1492120387838599
  0.1452869669774491  0.6771214737945861  0.1573664683538395
  0.1843445071098780  0.8528632942441433  0.9961932568802558
  0.9768872262261927  0.5097227651680064  0.8374744124128958
  0.1781416362403589  0.3632373618385940  0.7972585543381963
  0.2049920661762386  0.5396931424923379  0.6612187106550459
  0.0015314088083929  0.4855342711779949  0.5068177619169697
  0.1645846817484937  0.3246472966133209  0.5225707968639445
  0.1206278908250692  0.4954191078966702  0.3422700358579451
  0.9884809533633530  0.4932970651349775  0.1480683360745758
  0.1839308474338770  0.3442814856263273  0.1552259844879219
  0.1541530693259542  0.5185023501954824  0.0002334348689510
  0.0235969541756645  0.1596364377073556  0.8162653207107500
  0.1709644232526622  0.1443199468143471  0.9896136437250067
  0.1976212114728273  0.1562022425669957  0.6767539745819854
  0.0031906255266424  0.1438177759108778  0.4965824025190854
  0.1766969953576825  0.9936856903996515  0.4775642192609304
  0.1432591641287303  0.1842347655021294  0.3410305345474044
  0.9911952363116814  0.2053253766521031  0.1675188933894739
  0.1587584668902960  0.9772966492727333  0.1708564498563213
