Cl O  Li
 1.0000000000000000
    11.7780000000000005    0.0000000000000000    0.0000000000000000
     0.0000000000000000   11.7780000000000005    0.0000000000000000
     0.0000000000000000    0.0000000000000000   11.7780000000000005
 Cl  O   Li 
  27  27  80
Direct
  0.6888853619707171  0.6832510647483832  0.6766476125160890
  0.6712449781834373  0.6503610011158383  0.3183288603432207
  0.6323021838241140  0.6786256471488289  0.0183380797030378
  0.6963019651873539  0.3194380578360712  0.6759744211197057
  0.6547434084921921  0.3402394817028860  0.3340075033494416
  0.6766402663382971  0.3321312864710511  0.9998916827619280
  0.6882372715284932  0.9958551794728761  0.6589856095199043
  0.6635246129360655  0.0075239507454406  0.3345390565391706
  0.6354813816100043  0.9744669429946949  0.0069202009439260
  0.3032531887139637  0.6588322897466667  0.6747541908642937
  0.3243668360621898  0.6615026264150962  0.3531968386780929
  0.3321777266861741  0.6809827482005986  0.9961796838947131
  0.3607112363265366  0.3212385654720677  0.6757959614327165
  0.3582028412978433  0.3586024895720786  0.3457563895550050
  0.3418005013463464  0.3538491380771328  0.9939334435981566
  0.3167390811900421  0.9922945490298767  0.6725929177403749
  0.3278938844902335  0.0492188116944978  0.3381807596481475
  0.3451602235751328  0.9737474286983329  0.0098920261342890
  0.9940543121832879  0.6661990959090845  0.6454582599840533
  0.9880402646331166  0.6653605216131208  0.3195880982911041
  0.9872417430592682  0.6675185559042447  0.0006263581326526
  0.9804448588686753  0.3364501890319946  0.6809739239070504
  0.0059385417468452  0.3496926224954346  0.3244434122909687
  0.9980297975707582  0.3351803843921184  0.9877956878172556
  0.0136691409467468  0.0244106125953022  0.6469897015856282
  0.0101645011931017  0.9893107629312163  0.3199137022004986
  0.0164273284243950  0.0034935117909534  0.0159894907087067
  0.8537160405597709  0.8235550342328363  0.8180738780493235
  0.8273806052809572  0.8262228608058499  0.4811355518334420
  0.8389926305582387  0.8314198919082628  0.1715385411488901
  0.8201941211343858  0.5278602882228296  0.8427469823962457
  0.8123694249856140  0.4908527369437631  0.4930420679825835
  0.8337612678282019  0.4900910849266740  0.1702710846627901
  0.8404178789295568  0.1552960158272905  0.8523114175807031
  0.8436967113092947  0.1562245487041277  0.4861974426374950
  0.8436345257196362  0.1559995409170668  0.1620029518190107
  0.4979587597880196  0.8220771548286042  0.8242350287039056
  0.5021974607518837  0.8449096304982848  0.4855085429020574
  0.4796137274408377  0.8204337710685615  0.1816659664438903
  0.5050709532073622  0.4938531511593847  0.8235039431713169
  0.4995479335841604  0.5079521546835044  0.5114755204650613
  0.4954980160868186  0.4868067060457750  0.1567482694928518
  0.5125668268566498  0.1558370527242965  0.8349332982789758
  0.4882690222598163  0.1667489030794736  0.5097251742519731
  0.4941465321324005  0.1746592359916085  0.1703005580412221
  0.1493749572248984  0.8382941525734231  0.8224741562842345
  0.1671293985333149  0.8125153107103826  0.4926230035043564
  0.1776380142055490  0.8117122421189310  0.1837601957289583
  0.1651566659634590  0.5040484300014343  0.8334921796269636
  0.1613516447108082  0.4827729017415869  0.4952987652177169
  0.1713741520659643  0.5215065484731911  0.1762067315840396
  0.1755139876587695  0.1686377498799463  0.8384267033313644
  0.1554253802833109  0.1880856958859037  0.4992420036598825
  0.1763259225549968  0.1718496902411208  0.1573661679406176
  0.7022627130627624  0.8658823683772355  0.8188243965786808
  0.8276427887956901  0.6831370578340089  0.8227356920324084
  0.8252850804627714  0.8290012935188033  0.6417474887657290
  0.6721564667026924  0.7903684959433448  0.4994113136442267
  0.8485957697945932  0.6747539464260167  0.4934563551824386
  0.8430322647614572  0.8439669682133808  0.3280531319260977
  0.6438199590670689  0.8536539932191183  0.1832646138259557
  0.8247806322549932  0.6555215143784906  0.1452910503018057
  0.8465068845836364  0.8199864882596104  0.0265860419564866
  0.6674184591781115  0.4899580498696308  0.8550241019879233
  0.8175900995674282  0.3245746442214525  0.8349941883355165
  0.8064379885469977  0.5106552440485703  0.6720123569619207
  0.6561548918241324  0.5305309892599483  0.5052670018808564
  0.8363763014266614  0.3354623247868991  0.5142257348472907
  0.8442725757801964  0.5110015967305561  0.3313585227347524
  0.6607870300017357  0.4899035565078596  0.1823735906814224
  0.8473828269129692  0.3076062372682579  0.1757989625351839
  0.8466247780973644  0.4818448951750789  0.0039701281215115
  0.6869810902290598  0.1275672043161294  0.8214132766023229
  0.8790859797824776  0.9870552423033092  0.8653242380417022
  0.8463621087577121  0.1433527288045763  0.6472620469382545
  0.6722568300339188  0.1658976669715530  0.4799406249592388
  0.8022313925132110  0.9892105476247700  0.4816578945924109
  0.8479904319452592  0.1478485526069316  0.3370843945044287
  0.6885313575462539  0.1688190030602210  0.1343017614787772
  0.8500883858880414  0.9709135815805323  0.1889047374973917
  0.8697218664063738  0.1508662338498901  0.0028623808843405
  0.3396613737416616  0.8237184333473301  0.8341172743563454
  0.5085281643032695  0.6706253657771730  0.8003632115903984
  0.4899879113093858  0.8919211265720527  0.6651269628090286
  0.3299970205654870  0.8577002670295660  0.5093855826334464
  0.4789114675201218  0.6779664232188728  0.5245476115662040
  0.4918829523775783  0.7971279399859321  0.3350734234648900
  0.3182893889926463  0.8352402571312786  0.1507737059713032
  0.5075014947927522  0.6560712252745751  0.1775243697357529
  0.4909279825280542  0.8220177222468209  0.0225129440316195
  0.3338017989056781  0.5157245436826413  0.8362142566492889
  0.5122101503951307  0.3183834938781093  0.8168451458578254
  0.4941624024130946  0.4933889859344910  0.6722548240820156
  0.3342059647530496  0.5012074068447230  0.5114915526873953
  0.5293506608259551  0.3375905213309017  0.5062407164751800
  0.5296939366167859  0.4964583872886402  0.3351259735269844
  0.3349961387414372  0.5099424174358617  0.1966593534015677
  0.5160934299451840  0.3369555076760863  0.1554850639747948
  0.4995573666846750  0.4638368228947781  0.0085329182711126
  0.3381785956028274  0.1532756015658847  0.7817798416349349
  0.4955114572429168  0.9900658752894320  0.8477975372855170
  0.4919954613317851  0.1863445803462804  0.6625476373421308
  0.3258599582232621  0.1911495304961870  0.5025808354171427
  0.5012239080991998  0.0007189618818466  0.4561054876271315
  0.4925229457378157  0.1966071459396404  0.3420010843857533
  0.3322043458432057  0.1658345502174658  0.2048636812392910
  0.4635095220480950  0.9830426257853764  0.1915596289819313
  0.5140859204081947  0.1475776647290629  0.9981712368032200
  0.0091297712905003  0.8397286316182060  0.7927829663468081
  0.1771025136883515  0.8367242903178206  0.9992488405120288
  0.1748584276584126  0.8462501833920207  0.6637784747749457
  0.9922017624505747  0.8431268149864296  0.4818487833002500
  0.1769956322061257  0.6659411633623946  0.5061022158877957
  0.1597526329600534  0.7811749071138830  0.3282366118039188
  0.2018300709116348  0.0205512090728453  0.1884279205818936
  0.1534883356023118  0.6627405487946492  0.1636411939319917
  0.0218182846403919  0.8431167746047660  0.1852169822346149
  0.9782655507597999  0.5306502997630240  0.8600243739980568
  0.2098521334338350  0.3229457947235763  0.8646904794345948
  0.1654958628492388  0.5142460165118502  0.6788904637410247
  0.0024893861404917  0.4973042894438021  0.4977311691319640
  0.1662848830034434  0.3421897448702285  0.5337235487569344
  0.1823910013318054  0.4716631384599473  0.3222231114393661
  0.0318235376199017  0.5286935184446819  0.1504530817673306
  0.1635457110167736  0.4896060292302543  0.0053966755051623
  0.1383293329539467  0.6702186493489758  0.8349481870313916
  0.0134161324380403  0.1998201692855306  0.8275464113532308
  0.1798422828348178  0.9974788164742233  0.8723561488931455
  0.1814379342965481  0.1656034696189148  0.6656309656772974
  0.9962363780444226  0.1703768310277204  0.4772672923704742
  0.1411847689165946  0.0486561252245296  0.4678642320300140
  0.1656990692430503  0.2805265586986268  0.2619403158048753
  0.0114382632817989  0.2057059989098563  0.1686975382348838
  0.1819060468489105  0.1933726653264850  0.0093501795290843
