Cl O  Li
 1.0000000000000000
    11.7780000000000005    0.0000000000000000    0.0000000000000000
     0.0000000000000000   11.7780000000000005    0.0000000000000000
     0.0000000000000000    0.0000000000000000   11.7780000000000005
 Cl  O   Li 
  27  27  80
Direct
  0.6720104692506096  0.6569210095189972  0.6655471741307942
  0.6651292046095306  0.6640313810948927  0.3506194292775223
  0.6616604551717922  0.6703722059987621  0.9689213295782607
  0.6663229574068459  0.3272003817007462  0.6780195548545838
  0.6725770625626364  0.3092712357271118  0.3313576250650890
  0.6737110184094790  0.3373574220731131  0.0264943835887655
  0.6735374979425016  0.0061917618023616  0.6668306425965230
  0.6601344386151483  0.0304533060213383  0.3242021729852320
  0.6757246007579585  0.9762529498135036  0.9862972955622470
  0.3247710555738156  0.6754105342942335  0.6758175534082713
  0.3446789259579762  0.6631983937854998  0.3293294679690334
  0.3300524987559410  0.6443739332138793  0.9993001914045515
  0.3064667920344374  0.3445633594591581  0.6462169293328676
  0.3411081532872038  0.3518372516057772  0.3078392658230107
  0.3452785958499193  0.3576458553106537  0.0010127432222972
  0.3254134375732390  0.0124911163621834  0.6633570349095923
  0.3213848356442275  0.9901364241971631  0.3304410961122973
  0.3199379680640048  0.0033028140416408  0.0124836357279640
  0.0054338024447524  0.6849576012378292  0.6699023516190387
  0.0226724185126148  0.6852469909480378  0.3110621271235151
  0.9900901319248185  0.6619181236671557  0.0000727795429989
  0.9966184684840125  0.3074626310091284  0.6628992258940583
  0.0208931024583806  0.3598277759936388  0.3415989965463486
  0.0123870862020122  0.3077335188869971  0.0016009579572747
  0.0077343573979504  0.0089983565460157  0.6497651516303067
  0.9955936135422201  0.9805019366018292  0.3202800476843470
  0.9789983384719289  0.0066483303196319  0.0600938502865413
  0.8312526228231882  0.8412636719111717  0.8252245053747539
  0.8287788023345788  0.8192407424985318  0.4913946489336077
  0.8147727937970776  0.8414124962780892  0.1776917699151853
  0.8046208343436574  0.5197715822057843  0.8113528274274140
  0.8303141710209172  0.4736291459416608  0.5016643804445261
  0.8609075378333139  0.5281422645929267  0.1928495681226049
  0.8468995859961358  0.1530961758403161  0.8267352589318525
  0.8491248260677504  0.1763229794027544  0.4874092651797009
  0.8268683768106113  0.1608574515944262  0.1808499962587298
  0.4918807591015814  0.8412340365911000  0.8204304660428244
  0.5061757120097816  0.8458798183518508  0.4992295474056829
  0.4975991613131249  0.8182362185072486  0.1491528858366541
  0.4805292574372256  0.4931979307749189  0.8540586191838766
  0.4993842844933465  0.4828883616206254  0.5184698336227362
  0.5075700700133199  0.5021668255792465  0.1866966157635344
  0.4882695415062848  0.1567167354439549  0.8394140747608959
  0.4926942729287960  0.1572539464697222  0.5153158582472347
  0.4849725311774864  0.1435160728022142  0.1623326883709262
  0.1638281909007278  0.8322546965510091  0.8415112189954793
  0.1786782392645337  0.8399116211610145  0.4987372043354751
  0.1823637678297642  0.8286720616551261  0.1483903532618989
  0.1582138463140673  0.5060590119194852  0.8345843272974046
  0.1643560497968003  0.4974922182066225  0.5218378148751490
  0.1689008508238233  0.5065862938984662  0.1594771613161060
  0.1782536485278504  0.1815426013639105  0.8324000584606435
  0.1769104438397638  0.1556776267912353  0.4801441178816275
  0.1755585347885414  0.1726708108153096  0.1612819199201456
  0.6563651254940595  0.8363297959733299  0.8267236801046114
  0.8309344075011067  0.6756500864648133  0.8019926006506639
  0.8060434916487396  0.8418484431722589  0.6566252828873999
  0.6515508839425728  0.8247109691471796  0.5192280443799809
  0.8161667874319266  0.6607928316980392  0.5202015565472549
  0.8106742128369953  0.8499534602994139  0.3437467070579395
  0.6453189647914260  0.8159756751581714  0.1585475049691431
  0.8456268866494493  0.6922603594817316  0.1902354859312788
  0.8264160738108280  0.8625636938440290  0.9884362030275153
  0.6487757305478241  0.4454104103635355  0.8129174265797249
  0.8308911690832973  0.3211110724060921  0.7867819892259854
  0.8446902162052156  0.5151014687136630  0.6334822436381152
  0.6542466049630310  0.4765718684481265  0.4976052727591292
  0.8639371420294978  0.3181596455364906  0.4679527059027799
  0.8361873084692285  0.5276534437533832  0.3554371525742632
  0.6760977952667304  0.4897584927739724  0.1682924645964964
  0.8437323314061760  0.3478834059862089  0.1636673405161642
  0.8181018280851340  0.5220332186609297  0.0162271798856299
  0.6525813590816240  0.1488052891830469  0.7908747402870375
  0.8446487591454429  0.0012892048083189  0.8224934405914234
  0.8878577035765658  0.1457846626265157  0.6713835508268854
  0.6710998309249633  0.1848412918372212  0.5355744334949489
  0.8076650132874179  0.0017479358158058  0.5092762447932746
  0.7950601238169139  0.1768643705470974  0.3307868415131340
  0.3381344594421387  0.1324172507026092  0.1349486607321159
  0.8034768786005612  0.0112635531868971  0.1910332509340291
  0.8109065990900165  0.1808477097878026  0.0103789656352247
  0.3255838811490614  0.8511638121148020  0.8416673307361848
  0.5236607532791446  0.6684348981625984  0.8008235439534087
  0.4599801184024147  0.6817245983421367  0.5108063503763217
  0.3535499270410834  0.8718361482520423  0.5179640898818403
  0.4867241729236926  0.9020063615598082  0.6770601316099670
  0.5230184522505410  0.0161203193579307  0.4995127023627617
  0.3497789540181871  0.8530700271561363  0.1696975815977247
  0.4953996699622282  0.6557467706892703  0.1818784673699892
  0.4863774558730175  0.7952920031061497  0.9815342579329746
  0.3310235413132090  0.5072909829437781  0.8721038570704969
  0.5173231672080699  0.2698197017065573  0.9401406410853098
  0.4920974370155483  0.4837776236498266  0.6798098196818672
  0.3231109310967654  0.4927755464930770  0.5395074696138111
  0.3314978278905862  0.1814867112554966  0.4782682668977437
  0.4704387953214951  0.5003097193401621  0.3577134852332145
  0.3389974464402927  0.5138735867157737  0.1915856945952840
  0.6388910962561986  0.1401228286540026  0.1367845121309849
  0.5042238699114516  0.5075862025530172  0.0101350770976903
  0.1911136770517586  0.1748109100698329  0.9999821255088146
  0.5101651443046820  0.0117431686563569  0.8938756149999058
  0.4675192304695118  0.1557885365717496  0.6630980497422444
  0.1805248597824451  0.1565118084202212  0.6611073416503777
  0.5111552959754389  0.1534530041221222  0.3362201252252169
  0.4867780590043149  0.3302754712549912  0.4973909429989384
  0.5022581008321043  0.3288439678878384  0.1671462011850339
  0.4950219006021338  0.8359663991766745  0.3337668510821489
  0.4859159626851793  0.9747944502689393  0.1526982842767503
  0.0075179894504032  0.8042671326636072  0.8557727714404839
  0.2005983357359409  0.6694868305689147  0.8478106678103959
  0.1656767344756111  0.8299384452778629  0.6830539155798819
  0.0089484667654479  0.8512271312959390  0.4859980652456300
  0.1860246610230498  0.7001253790987976  0.4958431857771601
  0.1699359412996069  0.8389563274282107  0.3433152540442724
  0.9967723551086329  0.8435417049573403  0.1580121967576427
  0.1814794855059848  0.6814245204837056  0.1707363967312222
  0.1600653655665808  0.8187290069169657  0.9828416292377622
  0.9832158896046097  0.5108411485408940  0.8348882917551894
  0.1385509025386552  0.3410811688653212  0.8348835144768172
  0.1639806893185968  0.5405448484699902  0.6843798937260415
  0.0034769641938027  0.4645264063720912  0.5526368070846006
  0.1596320907094667  0.3217691627445698  0.4966674282380072
  0.1426579955561763  0.5132178850164818  0.3432254169196288
  0.0215219825735910  0.5493190489379450  0.1749344301008076
  0.1798276807806760  0.3465306264986729  0.1439671805276703
  0.1507644397940316  0.4857211257537103  0.9928741301633268
  0.0130756481373107  0.1535514140323194  0.8613727943133802
  0.1952761035033070  0.0086330699764560  0.8236329429394269
  0.3221018524968644  0.1842274925372112  0.8564311451768313
  0.0013306447355938  0.1823179779349672  0.4276634477798702
  0.1717595256192659  0.9874416330759644  0.4551511383108167
  0.1913773585266590  0.1851858429184648  0.3231642890161629
  0.0138686156189838  0.1865102016482271  0.1621838842467136
  0.1633732259852415  0.0130321026524270  0.1742052473824856
