Cl O  Li
 1.0000000000000000
    11.7780000000000005    0.0000000000000000    0.0000000000000000
     0.0000000000000000   11.7780000000000005    0.0000000000000000
     0.0000000000000000    0.0000000000000000   11.7780000000000005
 Cl  O   Li 
  27  27  80
Direct
  0.6542954350971522  0.6856492540280005  0.6527107567175815
  0.6661300491582509  0.6757604902245616  0.3368798430967960
  0.6703187506408466  0.6448887862188686  0.0205063262997077
  0.6837439554874339  0.3262982656007491  0.6701674581999905
  0.6497994493531571  0.3139298918950800  0.3415486812985044
  0.6608634236361614  0.3415421762750983  0.9870324377525330
  0.6759301094285245  0.0081423786313147  0.6844394963661683
  0.6557014124133416  0.0093436136384533  0.3242212294873097
  0.6708840484197556  0.9785759773789957  0.9794570279850919
  0.3500973764970592  0.6596602928874024  0.6769403838840858
  0.3487163786787991  0.6733305964057303  0.3283701338119402
  0.3434981332215809  0.6680813391245026  0.0003986086246642
  0.3346351280069357  0.3278084726048136  0.6624034496807099
  0.3397049741940407  0.3630515077773149  0.3443410409924751
  0.3441224182427637  0.3541177947942199  0.0021261519841186
  0.3399629877115504  0.9767231727147169  0.6798397060311022
  0.3387127375246723  0.0157059211129689  0.3324817308313165
  0.3226418111388955  0.9877278459935203  0.0313328764264920
  0.9829551404606560  0.6973250843113381  0.6598826661165769
  0.9788651145737601  0.6634602129784014  0.3111585512439767
  0.0147818611271283  0.6496769146809476  0.9989602659907901
  0.9987407301053094  0.3399159988142778  0.6521521390313116
  0.0011608487535411  0.3560368437105033  0.3300936381982422
  0.0048541664902383  0.3185780218096071  0.9942957733285119
  0.9846275218955638  0.0182294576849775  0.6625413025015352
  0.9999376692309032  0.9661744663652956  0.3561978410582176
  0.0077519827697804  0.0059119703440882  0.0083084233709957
  0.8270205257108840  0.8079525195767610  0.8386659125020186
  0.8241830652702469  0.8383166579981109  0.5020158828902772
  0.8232336014364737  0.8526768329017151  0.1704033111376937
  0.8390811293302347  0.5051491833488957  0.8159445287971968
  0.8227275338122982  0.5135126593330698  0.4728051737979481
  0.8355063486038788  0.4734677711445219  0.1625729672742361
  0.8338361635024598  0.1885373061704827  0.8383685066806431
  0.8421189115792254  0.1856344617928021  0.4904617112637916
  0.8296232517447237  0.1707867008546574  0.1727878612973987
  0.4993442086672526  0.8186133806330520  0.8329969024905947
  0.4951835230883312  0.8504358035202263  0.5013439465416020
  0.5120928618284321  0.8351902127013646  0.1687850384531627
  0.5106759129661507  0.4904082026794522  0.8286807529375269
  0.4823819150109579  0.4941765441507026  0.5069073706039179
  0.5075470385448083  0.5067913525466402  0.1736392087401967
  0.5074368372589679  0.1531665800150495  0.8186657151405036
  0.4900536977664088  0.1669285931082307  0.5136011877970021
  0.4950140106769375  0.1714252367401371  0.1549793820880727
  0.1636844319397928  0.8237989948498636  0.8311564357549932
  0.1991981930485229  0.8277954716060923  0.5123309175749118
  0.1599916969715941  0.8180812404048792  0.1678770418005146
  0.1676647246534005  0.4820055368184619  0.8169132636860987
  0.1601119993672131  0.5109841430556392  0.4920903583346182
  0.1616140991679383  0.5104160112980348  0.1744669734317081
  0.1519188961093940  0.1687611753102475  0.8321423364577070
  0.1650552577988069  0.1521933714883501  0.5040868330646333
  0.1702665498868690  0.1571473079468141  0.1765225391502891
  0.6663234884469157  0.8122793572780516  0.8514750103802299
  0.8373525642676908  0.6677860790298538  0.7826362913654434
  0.8381707744024579  0.8211686577664489  0.6745223118049556
  0.6574314349506428  0.8149385199733392  0.5181003314029722
  0.0039384473190250  0.5164773654171295  0.4796701633042335
  0.8223577400779607  0.6809277645506728  0.4694874349392634
  0.6625254711701836  0.8715659486730005  0.1669640350783871
  0.8304648624464326  0.8318246605735479  0.3338013730108215
  0.7871729229249449  0.8166484617473133  0.0066667482217693
  0.6687169453968063  0.5042818239264688  0.8104917108748209
  0.8475971543390400  0.3392998918459015  0.8509304006457972
  0.8556797425490918  0.4884493161197936  0.6342520008538949
  0.6590149812748030  0.5010799138256055  0.4737245974575502
  0.8385027547639169  0.3312844082028156  0.4751345423439131
  0.8462077760409237  0.5086863531294229  0.3173709969129453
  0.6717837151993099  0.5060053283127709  0.1768381634061349
  0.8466892285358593  0.3284624131887732  0.1832168421682926
  0.8245068675788995  0.4984467427634955  0.9959276810562996
  0.6739623970495003  0.1525762318887439  0.8194718606231102
  0.8133273074505335  0.0051063872291290  0.8689708612540450
  0.8534664051879979  0.2040520237518808  0.6550885862992375
  0.6823553059266964  0.1539262583684044  0.5129663360838265
  0.8564682363929672  0.0101044875765702  0.5198635924618293
  0.8256313903252274  0.1604547837540805  0.3300698327772011
  0.6786732793494252  0.1686172091925220  0.1727918491102772
  0.8262910595946926  0.0021189805329100  0.1740428077918292
  0.8333453993632394  0.2014799046879513  0.0088888133516267
  0.3056594569619786  0.7992322051894283  0.7911968503251764
  0.5200786494233315  0.6459544836645623  0.8553637149752141
  0.5033256653363958  0.8335631850469356  0.6688662166393006
  0.3539277011309187  0.8325764746360230  0.5345443308412910
  0.4956565546180005  0.6529231158202787  0.4913984221934355
  0.5167367002895064  0.8570722528874340  0.3533411095624520
  0.3545298811182777  0.8205034015104129  0.1376356956274945
  0.5399657305494910  0.6797616228029327  0.1909036045254192
  0.4841866736149976  0.8279656722694551  0.9907085420734323
  0.3543195189282604  0.4963456309587387  0.8768989571397884
  0.5438893740532486  0.3333207635943828  0.8521288497506646
  0.4661401806806694  0.4887583817392301  0.6838217699813945
  0.3230863004545613  0.5060183646147697  0.4877180150325617
  0.4485680552945384  0.3135280539587797  0.5017883953718578
  0.4930979171955792  0.4780302339316286  0.3544106531220894
  0.3311666012389516  0.5073310635464711  0.1796809274354734
  0.5314956969663706  0.3321134684274449  0.1703171176999441
  0.5273152949928114  0.4900390971970834  0.0117010418931070
  0.3345312626877499  0.2027228067729263  0.8390963533804373
  0.4922598287245346  0.9800970116998795  0.8166990148967278
  0.5123573125261213  0.1980950612623009  0.6714193885313809
  0.3587142506620103  0.1196770590389640  0.5305051824629917
  0.5375335695477035  0.0113249999646826  0.5057863296028443
  0.4762569987982668  0.1745893537108270  0.3199410107355581
  0.3321518339324016  0.1587117552788377  0.1418372411063918
  0.4802140022798099  0.0039529553697701  0.2021221723462565
  0.5046873516141174  0.1272577597434159  0.9929292167824922
  0.9832698740374832  0.8015908042013656  0.8533555576716660
  0.1757287199389399  0.6450639261022432  0.8322522948310880
  0.1386037812137698  0.8366268779582842  0.6602035129903041
  0.9968276568987907  0.8331423796960812  0.5196026639948044
  0.1458999605785577  0.4976033102183397  0.6515905254247066
  0.1977927217999577  0.8450556164232716  0.3096066645103852
  0.9717325519325445  0.7949232620393287  0.1362348194729569
  0.1381297577915571  0.6704316791128133  0.1513264948846016
  0.1720278069179346  0.8024619692523263  0.9708829620804698
  0.1603541324826761  0.3290344922738462  0.7965190623151053
  0.9936918705425789  0.1497712103828164  0.8495232897381295
  0.9928992231486781  0.4968169621011909  0.8272594721363824
  0.1844034477546869  0.6635462849599212  0.5264679773843692
  0.1457882309684922  0.1352981014282013  0.3406219297797043
  0.1425872823961148  0.5494772254814154  0.3234514803882338
  0.9792023124924245  0.5201706874237723  0.1584062797332921
  0.1526432104571714  0.3268069040484555  0.1960705752109560
  0.1415266456266628  0.4543884549173663  0.9821519696614089
  0.1824645609875358  0.1342172523178398  0.6690006282002815
  0.1852305241942294  0.0048533610080556  0.8630259026885109
  0.0097417438826054  0.1422409747418473  0.4860420000321123
  0.1716354628102638  0.3224103302285535  0.5161554527951507
  0.1767429401859026  0.9870123283662202  0.5199458993002252
  0.1784611409835032  0.9868427691435712  0.1485084168339704
  0.0114745004502464  0.1270292803324531  0.1438936570185814
  0.1967954244543475  0.1547599035657087  0.0122360388730185
