Cl O  Li
 1.0000000000000000
    11.7780000000000005    0.0000000000000000    0.0000000000000000
     0.0000000000000000   11.7780000000000005    0.0000000000000000
     0.0000000000000000    0.0000000000000000   11.7780000000000005
 Cl  O   Li 
  27  27  80
Direct
  0.6525035524964342  0.6731866873084715  0.6913573704033681
  0.6736487582217038  0.6558520088516038  0.3591822336370461
  0.6440904009142711  0.6690678231580122  0.0032544425518044
  0.6743170508834850  0.3444403003948734  0.6762627091927406
  0.6668902048581351  0.3145175946407393  0.3268404031831231
  0.6832598325984052  0.3349392248769628  0.9980844193296171
  0.6440757047104649  0.0247978574917903  0.6645051388667464
  0.6689931385063389  0.9951060137782520  0.3215573405846005
  0.6801286909941067  0.0085265865246167  0.0031417166211038
  0.3290543980748355  0.6841305818656115  0.6518445414721734
  0.3278280747652285  0.6675720087171793  0.3313093244305773
  0.3088211666937400  0.6525541888146066  0.9880803802798208
  0.3362068744770625  0.3379314205543679  0.6732614447835105
  0.3368286696455345  0.3295620944284584  0.3496054908879688
  0.3342195671596304  0.3330524225896918  0.0445368239113017
  0.3236500209454455  0.9892114149508762  0.6770894212635938
  0.3299080734287047  0.9711276551967039  0.3125562801220803
  0.3312999213368271  0.0243813334730364  0.9687144475930373
  0.9923603323561920  0.6692084289867132  0.6609059859236103
  0.0008147800053646  0.6465525101897547  0.3210769609530281
  0.0070797981931783  0.6825585333978729  0.9932418607642199
  0.9687127746822463  0.3333367516236586  0.6780943905943864
  0.9965473426240462  0.3259265653444964  0.3428343060765006
  0.0055546837020746  0.3788967040523561  0.9899484321290316
  0.9948569913603884  0.9877078526147171  0.6651996255887549
  0.9892312030032840  0.9701327717936610  0.3502724880166321
  0.0309993349533074  0.0123312864243262  0.9927778037112808
  0.8342733266018902  0.8280526514650502  0.8408034312758467
  0.8366214803780647  0.8154385313210815  0.5010110456012550
  0.8720060525436951  0.8298626731723812  0.1553257453555991
  0.8261938962538135  0.4961121681347058  0.8094498294357088
  0.8159996700324221  0.4911986968434710  0.4907345530268778
  0.8370796132768783  0.5027652570053965  0.1538013380940002
  0.8384475343077297  0.1854992570586791  0.8391978608886825
  0.8188495190084992  0.1400066622307592  0.5098916417265165
  0.8633509196663565  0.1544166038245247  0.1657115485367983
  0.5031081793571929  0.8489109775755271  0.8486914466057554
  0.4986524361106722  0.8103445760723607  0.4868266583475845
  0.4954621048370500  0.8417180967341860  0.1509720557061697
  0.4959584559628413  0.5321313895864623  0.8100478799112544
  0.5141478219088267  0.4755992635417860  0.4995295629955387
  0.5072291082635588  0.5160351193340669  0.1792717722255156
  0.4915347366755786  0.1998742901077289  0.8509462410266218
  0.4783822010648969  0.1397927069606103  0.5031775413430553
  0.4940894065278263  0.1604553265994663  0.1710659261849198
  0.1704867719171679  0.8467772345303637  0.8145646751559555
  0.1800634741808352  0.8416396360097338  0.4849039252589971
  0.1791333421303056  0.8281239057865339  0.1674991312056734
  0.1648595124847384  0.5070564675459450  0.8240502447618614
  0.1547118141207138  0.4811488820793143  0.5028012294577184
  0.1838234959003444  0.4887322851848793  0.1858061173888697
  0.1791762364221308  0.1967382497688283  0.8372270311330936
  0.1550224485497852  0.1712920765192158  0.5071080673665016
  0.1794550999257564  0.1536683929635337  0.1740477171119718
  0.6819741779205398  0.8194437529258559  0.8252307183447183
  0.8216303808460484  0.6471891432609675  0.8098546835350493
  0.8047499082032307  0.8085182792302361  0.6560059557884735
  0.6604224177087125  0.7955954983209302  0.4904431795315825
  0.8571234539103022  0.6661999986599244  0.4649276142893431
  0.8649636964564889  0.8390325375516215  0.3127267236979025
  0.7104911290282393  0.8299706072752653  0.1932248460895280
  0.8404034654324630  0.6550103171790751  0.1959982181262395
  0.8425393137189431  0.8301072860192026  0.9925426555942004
  0.6666427580326182  0.5258021030244242  0.8315241753189648
  0.8227323937044532  0.3401869032272031  0.8209797503016439
  0.8619551446734703  0.5109478036925752  0.6323475372707283
  0.6600776844431241  0.5035073545694874  0.5004629136361581
  0.8303195214677320  0.3062658381452782  0.5369428590529640
  0.8118330735836504  0.4949112089344224  0.3281618064779603
  0.6624540160646125  0.4851369378702769  0.1010008838605265
  0.8355419774075833  0.3390281298240710  0.1673268151796417
  0.8499199658915585  0.5045033766246846  0.9988789489787876
  0.6429897645598042  0.2119307844579712  0.8506748268384241
  0.8607287606357485  0.0032492073818058  0.8439778922687747
  0.8204509598838500  0.1439292126284486  0.6674489949646901
  0.6622251925276653  0.1810577646764553  0.5059310755288992
  0.8236096315669038  0.9870921909858501  0.4660919746790460
  0.8208360571031426  0.1577429053474104  0.3462509103062441
  0.6756741623098841  0.1385022041549054  0.1535567050044738
  0.8743061096528678  0.0028905287902488  0.1832305975505059
  0.8409032173326888  0.1572690843522474  0.0098910687263883
  0.3300889015121751  0.8253139754246520  0.8376033835038404
  0.4867826807137507  0.6813187082040528  0.8520937594857924
  0.5110900398673285  0.8114154961359359  0.6321565271066595
  0.3261655818916970  0.8630641100927285  0.5315602428314135
  0.4973677125972353  0.6392756626082102  0.4733063127876522
  0.4982725210238511  0.7945333231059007  0.3155381925053620
  0.3336685809731330  0.8331116273195879  0.1808923829424703
  0.4755064414264623  0.6591665088774937  0.1462532989940127
  0.5549650907480963  0.8385176441080804  0.0100796535613683
  0.3372231594799318  0.5331547797787750  0.7971162731825830
  0.4904461244878621  0.3772851823099317  0.8798277227653675
  0.5296045846259042  0.4923809922697748  0.6801730329966299
  0.3317675480642702  0.4557057452354469  0.5088554581446647
  0.4860679917721851  0.3138827429275636  0.5054617686569438
  0.5140624786646858  0.4929817147823761  0.3363982190030563
  0.1892141889611767  0.3309418574417154  0.1711188608584086
  0.4995166376711243  0.3291578678529720  0.2044678670979655
  0.3496072617673603  0.5028070784338583  0.1601313432720647
  0.3261322219139114  0.1887022805083156  0.8457081577185358
  0.4939753591280422  0.9929861936023062  0.8189263303097896
  0.4829143402799631  0.1755261014182326  0.6910324345032375
  0.3347399666189225  0.1220860485572685  0.5304165704861867
  0.5147596374237499  0.9923785012733511  0.4918528410200758
  0.4726248114035871  0.1292346788455517  0.3480039690417979
  0.3346443198379533  0.1499646560851854  0.1733958817693288
  0.4677095992397250  0.9916579590271274  0.1497741733970414
  0.5325149592898326  0.1492685904321895  0.0226949629642539
  0.9942328685971376  0.7910996745185748  0.8373362607690956
  0.1658069925334248  0.6697319053371603  0.7972702796819719
  0.1606798594912630  0.8748915987216789  0.6656610378057732
  0.0025391443903354  0.8147871210752428  0.5148870959728677
  0.1784053739742817  0.6887912622572182  0.4708045168807783
  0.1886533648200654  0.8520774224572885  0.3308226898031701
  0.0309315497253872  0.8132531288928418  0.1135769274764523
  0.2022334668450603  0.6529829293058081  0.1762309940561897
  0.1778658654015007  0.8340198770060483  0.9751600360861253
  0.9995898248970235  0.5133040140653264  0.8385661265520717
  0.1774412139367025  0.3434258169927463  0.8171418144107168
  0.1603643870557045  0.5007243470052115  0.6526256264860308
  0.9944909826955874  0.4589039711640064  0.4895327841183957
  0.1578877325883995  0.3167689478017613  0.5026960078772998
  0.1783876211220256  0.5014721530121031  0.3357190560087079
  0.0247646501425945  0.4877835096030750  0.1795503523312718
  0.1641936084621433  0.1713317724636561  0.9973527284136329
  0.1864845209244889  0.4810294096345991  0.0137069350082252
  0.9933871713993636  0.2053463385998238  0.8233499281408225
  0.1549742709119637  0.0239517782129600  0.8240793132861940
  0.1805036315576381  0.1886889000803325  0.6767927441795971
  0.9843483525988189  0.1261940322538082  0.5151362836710118
  0.1562362517463702  0.9934026562603608  0.4872547915576370
  0.1852468819428053  0.1806968777323033  0.3502650791866141
  0.0229106891137944  0.1855017671540950  0.2034431611298300
  0.1508353361195295  0.9964442605850832  0.1785538646938603
