Cl O  Li
 1.0000000000000000
    11.7780000000000005    0.0000000000000000    0.0000000000000000
     0.0000000000000000   11.7780000000000005    0.0000000000000000
     0.0000000000000000    0.0000000000000000   11.7780000000000005
 Cl  O   Li 
  27  27  80
Direct
  0.6950070040371680  0.6931876868468421  0.6731917062765995
  0.6605032324500623  0.6568174164055474  0.3466371589714203
  0.6605540416395295  0.6789701825278455  0.0051897347994012
  0.6610569109163204  0.3343025437889966  0.6399066669847384
  0.6503319209706936  0.3140416811156211  0.3287338022039139
  0.6772094558885242  0.3247854765341621  0.9792198296351915
  0.6552578212827782  0.0144043773244033  0.6728360014649191
  0.6814376711312154  0.0056521870025929  0.3259247625210505
  0.6470903351680949  0.9854823583037924  0.0052163723013842
  0.3730991696571682  0.6520771821834204  0.6824642821408425
  0.3522590214957514  0.6645923559855103  0.3686553111056878
  0.3416857708665577  0.6746043978621984  0.0023071077442333
  0.3615352410468884  0.3354203864426854  0.6578233232094082
  0.3404927872920314  0.3320921011347129  0.3360897582764694
  0.3415313190276593  0.3531899996584747  0.0175209998313586
  0.3293063041585666  0.9883787452585885  0.6638536655044932
  0.3429146649996955  0.9953874516442944  0.3135762873943639
  0.2945127784925631  0.0010374293419449  0.0096237626841684
  0.0140676149098035  0.6781319726005712  0.6627281711083270
  0.0057768089712920  0.6561290024950290  0.3491454730292937
  0.0055619313928980  0.6598779514549210  0.9969143829009630
  0.9974329690435207  0.3226462477159524  0.6813776537382127
  0.9663907373282629  0.3242190856491849  0.3217736922269885
  0.9964697581990292  0.3439254803908087  0.9992024987119588
  0.9845383640817753  0.9791790975344965  0.6382654289514224
  0.0052241043689184  0.0275976564395072  0.3218306551987657
  0.0104713611015693  0.0206668009667663  0.9970974636179456
  0.8330654097742196  0.8399736943450145  0.8461491426579431
  0.8270188328297510  0.8180695491251214  0.5017692337274954
  0.8436392271991526  0.8380721756112325  0.1699346703508909
  0.8277704849505864  0.4983923393762575  0.8296196785192531
  0.8181491272797617  0.5011534038483491  0.5034052491429299
  0.8360219782908827  0.5028822927941724  0.1677999657772413
  0.8118593949632291  0.1620888851162564  0.8523553940591917
  0.8360810869893865  0.1451218445456470  0.5100465567593298
  0.8150740984536317  0.1847412209544357  0.1443307558228229
  0.4896273534204776  0.8296587406311998  0.8457808063983632
  0.5069985092316960  0.8396268963235195  0.4846400996968624
  0.5075754668086661  0.8280620770342212  0.1741605475611585
  0.5197063935850720  0.4874901043059397  0.8405442615358545
  0.5084857407656230  0.4912668262570465  0.4959373509119068
  0.5117338042338111  0.4999888005461865  0.1677368793872116
  0.4786409086974970  0.1558190918641163  0.8321076689013398
  0.4965282534853745  0.1568419962315097  0.4911846066981100
  0.4991734891996447  0.1408206543515496  0.1642904272889941
  0.1472345291377075  0.8545703040426335  0.8323250755526854
  0.1663037037696745  0.8319783926787806  0.4753732322754203
  0.1645116778270591  0.8265679224951955  0.1610862500051745
  0.1820898355392704  0.4924778663244035  0.8354316829985641
  0.1796807309784403  0.4960936587710226  0.5236024485091840
  0.1549431941016083  0.5130240904096990  0.1651246291606850
  0.1658283848143439  0.1835477313122851  0.8278384014529754
  0.1568497330262221  0.1753917835394330  0.5003155241129936
  0.1636895507288810  0.1894804025559045  0.1600035082018985
  0.6793908907465900  0.8496863871006505  0.8299683388696051
  0.7704896217345898  0.6472658960668590  0.8467596626397482
  0.8320253395930143  0.8341067106790131  0.6752648831485019
  0.6850533421216045  0.8630365319972201  0.4969211463733039
  0.8365914460670149  0.6644595638409265  0.5331572886514870
  0.8106892046744955  0.8501932644330247  0.3499798368426244
  0.6608550506623891  0.8230757320051052  0.1468945045282485
  0.8667272467763371  0.6604747468827588  0.1531435591291499
  0.8455873041543588  0.8393616359176318  0.0101384182759262
  0.6733946371666693  0.4607698956911128  0.8447092385682290
  0.8520699899346370  0.3290103719732387  0.8326562462059460
  0.8437257850055916  0.4922332939629919  0.6839791652097544
  0.6579871451934817  0.5021776442342704  0.5009184733231413
  0.8277595538899042  0.3470624518941379  0.5310939902196087
  0.8132099882386286  0.5223468276968501  0.3364337020765640
  0.6754376119227609  0.5307398985156859  0.1784989843323952
  0.8356752612402077  0.3532213353657637  0.1686520318360656
  0.8350154300291027  0.4939072846929446  0.9957116828280527
  0.6481704049343152  0.1316146061371809  0.8429219696612809
  0.8373120053930211  0.0110429838072882  0.8336821464936744
  0.8373933000961686  0.1674971488450001  0.6637648810005080
  0.6673733636034093  0.1743441223438648  0.4892345459578171
  0.8479267130819872  0.9956158083338583  0.4801426969635197
  0.8269789142155560  0.1727179853684542  0.3488516704094023
  0.6612017272276542  0.1719522038395518  0.1617160410421084
  0.8153414641008359  0.9982790268448615  0.1652000231153347
  0.8456754813771949  0.1564161403257661  0.9961501752423719
  0.3294653106060826  0.8384458559449238  0.8373099631070441
  0.4996323103504273  0.6454335668986542  0.8481304176492950
  0.5212499403242173  0.7988919343226460  0.7018538785497324
  0.3498167796268904  0.8169681840332756  0.4975457552777662
  0.4948919951574802  0.6530550667749672  0.4867869600148447
  0.4892003942873132  0.8794846204619424  0.3413302099810366
  0.3503868951695815  0.8401935301209563  0.1458811243535421
  0.4746139869129977  0.6827104676100116  0.1798911358810921
  0.4988379056367016  0.8280718745034252  0.0085890024175096
  0.3424683538405827  0.5049791536308860  0.8308224190775736
  0.4900111146212424  0.3236789697952548  0.8409488727227353
  0.4914637311296757  0.4875924919076628  0.6671774366892581
  0.3377306297138715  0.4961536176631349  0.5455082536308845
  0.5247841951552291  0.3344833718724670  0.4908325050879137
  0.4981549167711143  0.4856214597250241  0.3400644741248587
  0.3448269933379299  0.4953578769308812  0.1639889223198629
  0.5130329405531846  0.3398488830083204  0.1693474193584452
  0.4780614410251110  0.5249509302346275  0.0175447546456374
  0.3292757781594763  0.1716349399246037  0.8632268602179595
  0.4771255398036658  0.9945149315972700  0.7953914506321588
  0.4709330939272047  0.1755717816719997  0.6580468431576538
  0.3246207657252604  0.1569502137322634  0.5149255749667107
  0.5042419791255170  0.9961322512932063  0.5162165332332773
  0.4885498342350830  0.1523970524680891  0.3244384621515520
  0.3442772014710257  0.1777547347329382  0.1664119538617102
  0.5052314425443051  0.0079331957263916  0.1529506967575766
  0.4931508796178570  0.1345417721248794  0.0178979329147042
  0.9753942749918034  0.8067203551291316  0.8397748768054680
  0.1579995996391687  0.6959911395431344  0.8559635347633332
  0.1495707498393037  0.8320775009622992  0.6637350432533865
  0.0019899713609624  0.8508339865306408  0.4774774209713321
  0.1711222165319090  0.6467439581619894  0.5355798950965300
  0.1846325014674727  0.8061291062024549  0.3302919844187502
  0.0065176622416120  0.8467251222764350  0.1683433811920809
  0.1688188294977693  0.6684168507203393  0.1602283236832622
  0.1537949367837066  0.8692618925119574  0.9948859367137771
  0.0002484480415363  0.5140634318535257  0.8211539363895859
  0.1840197345454161  0.3408371723502202  0.8433753252817221
  0.1335352178231617  0.5032107509249671  0.6752584054829125
  0.9670748572549901  0.5094038040825772  0.4639454560987488
  0.1623293118045647  0.3364020969054710  0.4970590396795393
  0.1808062861027215  0.5046003721355431  0.3437988078517646
  0.0045502844998044  0.4812001290769475  0.1621745383096114
  0.1788395453735358  0.3444393212136916  0.1575663776160416
  0.1991651037319859  0.5270231354566914  0.0223357942617245
  0.0226229651685146  0.1842274206169627  0.8723718665555004
  0.1685075270594339  0.0298269172183959  0.8446404133713411
  0.1547481151538411  0.1824005772218041  0.6636514813672827
  0.9981314486390840  0.1487708046643546  0.4830768770484893
  0.1717445582534151  0.0023082759078472  0.4867852191422176
  0.2005402514085105  0.1922599283749260  0.3298282240479558
  0.0041072820740768  0.2194148693216245  0.1661171289852180
  0.1660968638103215  0.0238633682586875  0.1705482064957363
