Cl O  Li
 1.0000000000000000
    11.7780000000000005    0.0000000000000000    0.0000000000000000
     0.0000000000000000   11.7780000000000005    0.0000000000000000
     0.0000000000000000    0.0000000000000000   11.7780000000000005
 Cl  O   Li 
  27  27  80
Direct
  0.6325611820590182  0.6851462890442455  0.6845746082333676
  0.6531210902128716  0.6351107757608646  0.3320968885787331
  0.6670155614460043  0.6814226029801520  0.0127608759479336
  0.6885041239329246  0.3136482404047293  0.6506841906067629
  0.7071996384739054  0.3115282623989432  0.3142073980641292
  0.6832756761524029  0.3382636935279051  0.9884760431294770
  0.6708915941076795  0.0005602633206895  0.6803783764645241
  0.6861938645004485  0.0228020144367326  0.3536897414816435
  0.6760617428978961  0.9901423747799967  0.9891777058903962
  0.3239426025190474  0.6545549465023457  0.6541712394497916
  0.3578003079344255  0.6907278505702117  0.3275830892543671
  0.3325257928229334  0.6937598838909920  0.0320751732898535
  0.3354147911904166  0.3383295228044579  0.6478061637853718
  0.3485609301063285  0.3423765658376944  0.3385027532936616
  0.3299941996543479  0.3506121079264769  0.9795428665780637
  0.3158909856475952  0.9993435863321205  0.6664970225042101
  0.3383464409372653  0.0046809511728130  0.3377574776248907
  0.3236960463725490  0.0016696645687244  0.0139105072394350
  0.0272477353060875  0.6499182739588297  0.6592922389523483
  0.0033227795105803  0.6471772497646556  0.3416592590072839
  0.0061930827911496  0.6676440819610704  0.0011876367213189
  0.9908758479787337  0.3544703674931908  0.6489341277915440
  0.0070219608314342  0.3223873400222714  0.3033058512457802
  0.9954053132589906  0.3161013323634526  0.0150237497384200
  0.9962229316109296  0.9907038137932713  0.6766885766885459
  0.9915518588043681  0.9710683963011072  0.3495028213570849
  0.9828098296878666  0.9988314508780580  0.0088837008385970
  0.8400531589390171  0.8351679714751664  0.8309807006447191
  0.8385749556515056  0.8240879244844181  0.5025007077284871
  0.8205045358399062  0.8312935177444786  0.1629477932536550
  0.8303684011162358  0.5155288989824602  0.8373041977931367
  0.8207210518122336  0.4894800599205698  0.5022597385685595
  0.8358319881576544  0.4933336636651414  0.1522420136350422
  0.8668821923357466  0.1686092390733254  0.8435025140540382
  0.8450956977171217  0.1628158781252891  0.5151900902495232
  0.8275554748340187  0.1449627030233960  0.1540946867217387
  0.4882986706474443  0.8655991537353670  0.8402123457595186
  0.5065695742090370  0.8361977583622486  0.5113389561149575
  0.5011343674399821  0.8620322271785383  0.1673566442741196
  0.4805785887979421  0.5104502472186946  0.8293086532144432
  0.4948330562962083  0.4888548842203683  0.4941356528133256
  0.4930488642804153  0.4933111132918081  0.1533364354790841
  0.4926503259050245  0.1687283977561138  0.8346422011191537
  0.4725489555040842  0.1761284120760300  0.5111887147586922
  0.5108033359528893  0.1753080562145365  0.1590449086438412
  0.1747055475753531  0.8290923260063648  0.8356637289826095
  0.1736289595543871  0.8312123040121511  0.4974351327521299
  0.1523377836836002  0.8367176719966214  0.1756699689567378
  0.1635520904150421  0.4828866870295319  0.8257475565566452
  0.1570328564309459  0.4929222914148016  0.4746058554298340
  0.1664283156356910  0.5143643361657076  0.1726638665410204
  0.1626006225534772  0.1810414582704606  0.8235302516253775
  0.1562324295124924  0.1707182657757244  0.4995628434712135
  0.1557802884543491  0.1461726499846847  0.1851637571008603
  0.6474603392250743  0.8129549225774763  0.8339086054911489
  0.8285640473662956  0.6771714729954381  0.8383203815824811
  0.8480762335964659  0.8554206358530301  0.6836036061615095
  0.6853702293207504  0.8312902789116841  0.5402214095035416
  0.8406322622427138  0.6662801689858027  0.5335073496054903
  0.8526182107661459  0.7952114629365044  0.3249595537198215
  0.6400165702983718  0.7942167364144250  0.2016141329912439
  0.8394704929192466  0.6580964482217356  0.1670912219265920
  0.8053650977658919  0.8400169090229662  0.0001465431764896
  0.6446598419637068  0.5254995647701958  0.8426678668428382
  0.8316851485889305  0.3520666677345870  0.8362655041158690
  0.8042517489927057  0.4925903920241623  0.6840870019561219
  0.6715891172354330  0.4843753355528064  0.4752289663741288
  0.8437049429150677  0.3370770459200335  0.5001699626785843
  0.7969428369664937  0.4886237125296449  0.3373477045482434
  0.6644233616187477  0.4808306354860316  0.1584891046935618
  0.8493011601594302  0.3375757856850109  0.1739031046963964
  0.8333452123378661  0.4548534960851341  0.9914433795000135
  0.6711745061522986  0.1668779716096686  0.8538002209832209
  0.8553589110770408  0.0078902568194192  0.8361144125659953
  0.8455050861823747  0.1546062062134545  0.6706017572466026
  0.6882370821689997  0.1903669890508972  0.5016345223829481
  0.8493131438407707  0.0014825971458863  0.4988939840136931
  0.8090643306423849  0.1596380568433365  0.3188425119193625
  0.6648085398088600  0.1179874869327471  0.1659510009625621
  0.8014937209263593  0.9894048217031708  0.1627352752155588
  0.8255564672331155  0.1688331132689082  0.0125480251703745
  0.3132067624835585  0.9067496579838036  0.8395393163047752
  0.4610298847280113  0.6975275371102735  0.7991327719492867
  0.4868510338444328  0.8682839841805530  0.6770632691574853
  0.3407871646032538  0.8334515520356028  0.4785594986223526
  0.5100789305129395  0.6830275256007574  0.5317976102585658
  0.4754205856307056  0.8610461645341848  0.3271671826381148
  0.3385292730485274  0.8615268073209219  0.1613908053584117
  0.5086557468975281  0.6418266979877727  0.1751478691102284
  0.5238235652439063  0.8508648936439724  0.0171025996283894
  0.3306201040919282  0.4520229181641859  0.8037668939119766
  0.5373120083008106  0.3435074447933819  0.8383942269702009
  0.4966656283768727  0.4790447430830213  0.6645098771284177
  0.3226570085692969  0.4806861835433869  0.4873794880889428
  0.4793983581275449  0.3393784997758489  0.4869586017672686
  0.4674660932576853  0.5178338953116450  0.3253774643638656
  0.3169957717565803  0.5167586433092067  0.1835540976872927
  0.4834579921232710  0.3464169287782918  0.1276604063145711
  0.4685073780011888  0.5031659098363125  0.9779641506693764
  0.3296225638338585  0.1875173627445748  0.8196457575130263
  0.5357434010929162  0.0116749449075151  0.8547585916071797
  0.4756886395298789  0.1972398124840048  0.6801210511989834
  0.3104269735093723  0.1236712639974445  0.5026836612959789
  0.5186210281257425  0.0077901762534777  0.5231641775609516
  0.4756832954557676  0.1505926648569385  0.3436784688277441
  0.3121512673611680  0.1714669827043395  0.1497594482978868
  0.4793630548500825  0.0196451380285755  0.1695009337685710
  0.5189111465733297  0.1637206157024376  0.9953528850558129
  0.0141744802494093  0.8301849462496649  0.8150851570547765
  0.1845135429859737  0.6498552786609724  0.8266061711305261
  0.1761854714927869  0.8280546849497555  0.6534436761478670
  0.0051182457641633  0.8314195083401933  0.4787425331606645
  0.1578219777986752  0.6836751302180621  0.4841487928616164
  0.1789053218175657  0.8692821114770668  0.3406106868899923
  0.0009074667651707  0.8416938956732540  0.1566420894429035
  0.1786552029549932  0.6826567602165813  0.1617107817958254
  0.1516431350199519  0.8280784903707966  0.9923700051344921
  0.0239018489661462  0.5006835064407967  0.8138327004130572
  0.1460807028501794  0.3418267334853802  0.8634153439009159
  0.1769744309188765  0.4673142979816828  0.6384376779849952
  0.9962822588673885  0.5035165134863412  0.5015206369248038
  0.1500080608902983  0.3338814313004149  0.4908878322575970
  0.1496877808123101  0.5383122658498910  0.3195381524755541
  0.9989362062985898  0.5193084953976724  0.1574436398314826
  0.1517206949440331  0.3159115974897967  0.1570179964741410
  0.1761765849453064  0.4978155604864793  0.0172215255200706
  0.0021666727675354  0.2083382196081580  0.8188007460368831
  0.1393315522230678  0.0634868732124747  0.9134562822292278
  0.1488266460216606  0.1758198120388078  0.6648586994204093
  0.0024210615756868  0.1530065466961407  0.4558973855576743
  0.1382137298120839  0.9887266961474519  0.5336837040511628
  0.1373497914067965  0.1801939974270163  0.3263136692258853
  0.9929412427957452  0.1422347050098680  0.1552828727751879
  0.1335046187488437  0.0078878884229381  0.2005971192509959
