Cl O  Li
 1.0000000000000000
    11.7780000000000005    0.0000000000000000    0.0000000000000000
     0.0000000000000000   11.7780000000000005    0.0000000000000000
     0.0000000000000000    0.0000000000000000   11.7780000000000005
 Cl  O   Li 
  27  27  80
Direct
  0.6669466755883602  0.6822047428045526  0.6722060106118110
  0.6935941319215354  0.6752125886256642  0.3308875881378704
  0.6826355411605894  0.6851873839252132  0.9956751498868007
  0.6622853474301945  0.3229552715427108  0.6434203173529692
  0.6685760513965654  0.3273458332792375  0.3419827969146388
  0.6627183388894391  0.3323930481221894  0.0144949559014480
  0.6844533360666278  0.0348513906053873  0.6510737197323102
  0.6448466619552059  0.9798211404265126  0.3316398677825598
  0.6824279319784476  0.9969330785955681  0.9849597296799474
  0.3465225505116230  0.6737689598782363  0.6752376390784917
  0.3393702765364457  0.6615826490610405  0.3051854863693599
  0.3313962297104273  0.6620354378857429  0.0095814555113247
  0.3158349539076051  0.3218387649075497  0.7015946125953902
  0.2994989088148752  0.3404709197819837  0.3224604690892801
  0.3541629165889651  0.3182434378356523  0.9905992523960795
  0.3428784182780502  0.9900137029505894  0.6766664906512938
  0.3341306345400773  0.9959695773947772  0.3542225484729475
  0.3303078401924655  0.9976424737534925  0.9955825799969866
  0.0114543997312200  0.6554363160664943  0.6616962411053937
  0.0031444385005490  0.6593956272164037  0.3324323696820186
  0.9643196129325128  0.6537563739812814  0.0083427057112061
  0.0017668583783596  0.3301218773530047  0.6756701851982270
  0.9863995116427750  0.3269884685657498  0.3470558212064237
  0.9737769060099178  0.3408496607919167  0.9799112775016542
  0.0096406343886391  0.9851614544553583  0.6522927759108340
  0.9994631820949436  0.9975035844429144  0.3532546232922444
  0.0109067118404633  0.9907495815761638  0.0003717054122851
  0.8304825902823133  0.8366565817029158  0.8137876996337825
  0.8224634022242185  0.8268490721172146  0.4843364212478227
  0.8443167787400545  0.8514156188651901  0.1709453406140073
  0.7966233464213577  0.4949996404738118  0.8308361867278267
  0.8366915946914376  0.4994096352071069  0.5084403817018920
  0.8266968805702011  0.4879647337020331  0.1710275259961734
  0.8480660515832259  0.1753346978041578  0.8138362011548834
  0.8333102532537464  0.1665326332528158  0.4926407075626733
  0.8457245374142808  0.1667373173640899  0.1812011451439083
  0.5130513896203601  0.8388465184970680  0.8120972718273965
  0.5084365791982086  0.8331231770655126  0.5095289129187885
  0.5051653580755382  0.8542253063146124  0.1523352300452823
  0.4978811016639760  0.4991355489818535  0.8142475329198133
  0.5009555636943669  0.5084241570684301  0.4998346005392628
  0.4968773064100714  0.5027056334006569  0.1848778883751831
  0.5087372238523790  0.1703219967731746  0.8365239009986403
  0.4979936511035926  0.1849361771387048  0.5163848741786586
  0.5179061165817808  0.1740787796598890  0.1626102651449020
  0.1624937613813148  0.8299928451694125  0.8451072127587561
  0.1676271291766064  0.8309450620110611  0.5134037310181655
  0.1779534694119650  0.8422162001366981  0.1742908119784968
  0.1682519303867660  0.5105582239968732  0.8295187914885730
  0.1791281940666111  0.4892861774822802  0.4969635372083804
  0.1400842064251575  0.4940103389966636  0.1728990045557843
  0.1520032123232638  0.1685652842293742  0.8357286056058958
  0.1742944992756513  0.1583906529463910  0.5158577541413175
  0.1433248711846803  0.1659046438166240  0.1522400893319373
  0.6749607624848034  0.8346771690404207  0.8180456311673655
  0.8265143723422185  0.6692380352254682  0.8412783455996542
  0.8459522273597500  0.8192410538824098  0.6511628686049850
  0.6580019505737630  0.8187265652929679  0.4862112196110482
  0.8210130528987415  0.6680981685087752  0.4905830366027756
  0.8337486292725124  0.8452482334574780  0.3240081048548287
  0.6701700834418984  0.8296390026865890  0.1902552414934421
  0.8293894842140944  0.6768385231740254  0.1670157761190469
  0.8245676718909500  0.8357579675440200  0.0193360203021848
  0.6544452668256476  0.4925760623789303  0.7957613279481917
  0.7964479636255234  0.3431638877945663  0.8444575838709545
  0.8313442817473494  0.5169696149702577  0.6563855674572959
  0.6635072780728237  0.4978238621854005  0.4854258836291477
  0.8490140579422414  0.3420455998013682  0.4775017553135779
  0.8413082269570361  0.4978998937852566  0.3363866403983912
  0.6676054541788068  0.4802354616644759  0.1805201198207028
  0.8657199574974237  0.3133064647639507  0.1588934717218500
  0.8387246100366852  0.4918775676013383  0.0027790431645222
  0.6780179777305624  0.1642552580945587  0.8395340721980559
  0.8489453946869933  0.0121584074156343  0.8361189659284798
  0.9881538289786316  0.1939633911760425  0.8215711816352415
  0.7965598652985812  0.0063187596249373  0.4806010753856684
  0.8293661646179724  0.1777359886808706  0.6472425853902519
  0.8677238233475190  0.1665377748998775  0.3447207442176581
  0.6741693536914127  0.1972555432556488  0.1525090541528341
  0.8523458452381731  0.0009480939531125  0.1768727892397451
  0.8504239218577846  0.1892477923258603  0.9963799281265313
  0.3521907508148482  0.8239956604250632  0.8333953504605772
  0.5327874601674656  0.6879839541018169  0.8023781014061713
  0.4820849092700115  0.8640606698623485  0.6530847110145538
  0.3450404201393478  0.8283901087609439  0.5049484746096712
  0.5272431857040485  0.6831393080074699  0.4970255608563993
  0.4892957251479535  0.8458686318793073  0.3217064283292586
  0.3500802059095769  0.8447761735776471  0.1755984502339563
  0.4957405975553533  0.6588197627455019  0.1441623593710778
  0.5418725076128940  0.8435405588664604  0.9818906243753581
  0.3338550098692463  0.4827962852990338  0.8499094301434921
  0.5079823733841586  0.3465860790108808  0.8420644103189335
  0.4654089689181803  0.4991675324557013  0.6615602101280154
  0.3330343503671783  0.5144886690494997  0.4789916183991506
  0.4663160850131624  0.3419106619300581  0.5103987419512214
  0.5101849416262103  0.5125856118701402  0.3273577462165413
  0.3405320458599130  0.4894784426940570  0.1697789053470452
  0.5079561793239313  0.3397683764633984  0.1929043435643611
  0.4876266331526027  0.4997883357316298  0.9968741562986393
  0.3356567118248360  0.1757308070549524  0.8363479514070667
  0.5038382868233103  0.9969005548945314  0.7949871659394327
  0.5346070769169511  0.1758650971597037  0.6589669171946905
  0.3389007267520308  0.1663063501753420  0.5360942243552076
  0.5251091592610153  0.9991158398252479  0.5093716675866048
  0.6729466943114046  0.1865971720520687  0.5139701219031427
  0.4982391546294326  0.1674149621555659  0.3685837355118000
  0.4876189409247152  0.0200227425762387  0.1791726439218682
  0.4960482866708520  0.1696886126561091  0.0078043009984303
  0.0047742235909454  0.8744835576790473  0.8432610780657639
  0.1986686998410302  0.6620850729983221  0.8123032615931409
  0.1271197457863245  0.8364204707921806  0.6707091840357295
  0.0088844365153696  0.8366878364393848  0.4761892183235164
  0.1683661599708949  0.6667062801152430  0.5365696040386532
  0.1805014794142787  0.8391090258950802  0.3337099475206021
  0.0145054738463598  0.8668381309254632  0.1793162659136092
  0.1701404533039591  0.6617790032992206  0.1910877024925058
  0.1744258744308872  0.8340726408992856  0.0088643153047045
  0.0067711436628989  0.5222634062024130  0.8278259345575910
  0.1667338287277643  0.3240014955062261  0.8427692613058851
  0.2062555239637346  0.4702160514431797  0.6823437192009343
  0.9810059782774019  0.4848735107119295  0.5371889093544141
  0.1673831742176964  0.3132737525527240  0.4988978896096189
  0.1510235666163849  0.5126569876478539  0.3332556000076174
  0.9714894019081628  0.5261016254912095  0.1873604132269285
  0.3187382841102048  0.1939150515965812  0.1805997748647480
  0.1313966548558140  0.5139461645563835  0.0204047617446380
  0.0111969150543777  0.1676030877341769  0.2325330718599322
  0.1500045589696975  0.0003899715805298  0.8523104578650402
  0.1601513868974086  0.1601585698273907  0.6916170642879661
  0.9954051545476321  0.1299433569864830  0.5084183576388879
  0.1815988162078359  0.0142078547766390  0.4845592529440997
  0.1473805679742901  0.3264181505960089  0.1808147523914978
  0.1073730680618163  0.1598087758855606  0.9907049813092913
  0.1612908082745922  0.0287617194723819  0.1730756221566216
