Cl O  Li
 1.0000000000000000
    11.7780000000000005    0.0000000000000000    0.0000000000000000
     0.0000000000000000   11.7780000000000005    0.0000000000000000
     0.0000000000000000    0.0000000000000000   11.7780000000000005
 Cl  O   Li 
  27  27  80
Direct
  0.6818231145309277  0.6564619209372472  0.6546907865848954
  0.6528942243771494  0.7035264528980286  0.3341739701621144
  0.6873991700411433  0.6962592408440486  0.9928142430812733
  0.6685898510128377  0.3593044370663237  0.6588735367122307
  0.6624776472188658  0.3250375456127421  0.3395143196156937
  0.6590047277839041  0.3361800818337234  0.0212948123548861
  0.6459507741464119  0.9921385044134184  0.6618267449398693
  0.6885866071145085  0.0120460559749756  0.3420190507147879
  0.6559324519656494  0.0077825798379854  0.0063027221954956
  0.3276404328077410  0.6685667751096557  0.6712036921909221
  0.3513368266400043  0.6594603918531921  0.3206703450764847
  0.3356749850789059  0.6621899586763551  0.0097509271854463
  0.3579690655245789  0.3747584467755256  0.6475686742401189
  0.3435984453852118  0.3059339381396262  0.3379807120446873
  0.3127062962475021  0.2955891264359852  0.0089080854742417
  0.3316652493509237  0.9743482942453252  0.6784626452212756
  0.3226058494126884  0.0043642929333914  0.3063350484572852
  0.3488743420661762  0.0051528108154789  0.9970871045586460
  0.0271897417062146  0.6688922373201155  0.6678708117889220
  0.9963682750335735  0.6560199822024073  0.3035532149698975
  0.0013506434781865  0.6469352586402584  0.0094520645218978
  0.9695761744520565  0.3312727845675035  0.6679906081169170
  0.9999062051016331  0.3288600160770745  0.3429151952636779
  0.9951064428565318  0.3222104089516382  0.9916267845000337
  0.0179476298477780  0.9867444826927880  0.6691284505631131
  0.9895790071607244  0.9902938512333960  0.3534954093833803
  0.9902086950863800  0.0371375213661273  0.0039032702420122
  0.8457321022774231  0.8350241169844493  0.8313107355759218
  0.8230202731293458  0.8248259231928845  0.5154910566563929
  0.8363981910171303  0.8505424175246267  0.1711731511312593
  0.8346921358425097  0.5098580977837779  0.8389069320710257
  0.8421752970730779  0.5111281250934087  0.4893286560196375
  0.8191535116265456  0.5019371273301829  0.1700560270935969
  0.8031344875363042  0.1641862386942201  0.8355958733049802
  0.8238839078940587  0.1567084822658780  0.4901363399478216
  0.8345049313069747  0.1773645027829147  0.1709495097267837
  0.5277269399588351  0.8293094394306200  0.8381742271220395
  0.4962103033728928  0.8408077007059865  0.4910673019492549
  0.5093334870613723  0.8424025829449283  0.1586436657367577
  0.4986339624385941  0.5012046652936564  0.8559954997209046
  0.5083647116870605  0.4991080473694022  0.4881969673557512
  0.5010899693468328  0.4937259169727708  0.1556550024113693
  0.4996441948726782  0.1575094962227755  0.8406093435587522
  0.5017004083578183  0.1764140268138932  0.5141167389307720
  0.4990287356708610  0.1501762828292504  0.1752387769676555
  0.1709876248410186  0.8495803222429540  0.8635989835897970
  0.1569736609204656  0.8329742597086690  0.4916651499977507
  0.1508567506975889  0.8250772566177550  0.1623350343223711
  0.1636539559866319  0.4850109061741395  0.8270611440367852
  0.1603875121423337  0.5065915729686599  0.4838820323649812
  0.1685571338623910  0.4737297681522491  0.1639124268642211
  0.1735813833565578  0.1615756989762632  0.8137718082259365
  0.1763938642992657  0.1732408613540830  0.4892016937740843
  0.1522176879952266  0.1625187661152668  0.1745126913831935
  0.6777447357904024  0.8607500849021159  0.8483572793702890
  0.8273166658023662  0.6704434762871482  0.8287229891437579
  0.8331561193896122  0.8382593060922785  0.6743833353163218
  0.6461204889848553  0.8533239271287348  0.4765553067583981
  0.8105829122851492  0.6694006126126573  0.5051776818735658
  0.8355164997595866  0.8414793536567923  0.3484948539753774
  0.6875994108786768  0.8206778690618626  0.1628035820928902
  0.8402894866783504  0.6656722707264215  0.1526419061410859
  0.8218235244116956  0.8479098942290755  0.0117447026797000
  0.6497398846329585  0.5063896317439087  0.8421500563192021
  0.7973179486910806  0.3485645484898413  0.8205889034922701
  0.8254293169620609  0.5445511791477350  0.6410440455751490
  0.6495857971627496  0.4868762714368505  0.5068642635660080
  0.8354795770657270  0.3468669952513071  0.4736554178156426
  0.8099067249684307  0.5779805489260110  0.3363647166644651
  0.6797724475469489  0.5135565209520723  0.1406035694971990
  0.8229333104688075  0.3281409951966459  0.1915225149107506
  0.8553724880909169  0.4892514694668608  0.0115371694077019
  0.6556181232429217  0.1585071376943701  0.8764036280729154
  0.8545991357903567  0.0135281762258984  0.8690475100587202
  0.7970317978136668  0.1833319105082575  0.6710599285002464
  0.6443294549347833  0.1598366481925465  0.4999991121180829
  0.8117220097790532  0.9967528982786568  0.5088618946629735
  0.8098329605515309  0.1622313298260875  0.3479544142381679
  0.6522070655143389  0.1413590160064783  0.1638036729317858
  0.8600432088641873  0.0352269819769443  0.2143920752159310
  0.8335511760197486  0.1668729415896153  0.9876155109590585
  0.3395301879971699  0.8595279923178472  0.8853385961037181
  0.5073387709139221  0.6702474459322475  0.8826742512759591
  0.4721121728178541  0.8308682086839002  0.6690613662388524
  0.3300359545135382  0.8540188996756626  0.4812550555705911
  0.4784900418718130  0.6681310306425358  0.4992325208809819
  0.5048047486207404  0.8391564627764170  0.3236572574078934
  0.3115806803951060  0.8125296944877179  0.1854024771899566
  0.5196917601638162  0.6896825479419034  0.1296927717626802
  0.5365231240043841  0.8685985864719291  0.0068688575163226
  0.3220659359858081  0.4979502861015184  0.8263647949859197
  0.5132939318027597  0.3411163059253413  0.8225458062668417
  0.5013489949995906  0.5249080226164281  0.6826944636654512
  0.3378704076461040  0.4939708132174619  0.4507309592945917
  0.4821364008029323  0.3429214896261851  0.4702814447225597
  0.5534045278116306  0.4943173683264973  0.3072165575304840
  0.3550674761946062  0.4675136383109765  0.2096532377404466
  0.4909017754515215  0.3199821122315735  0.1366201998924363
  0.4413632205750810  0.4865375704973423  0.0079228407616858
  0.3348039414841751  0.1338657233020740  0.8382856429701782
  0.5352261738971471  0.0023633431398344  0.8086848164677244
  0.5082408668180722  0.1827986569313113  0.6864863271598732
  0.3419560332750077  0.1932688317068130  0.5129499899018830
  0.4733458847147741  0.9940814605968524  0.5115710973249394
  0.5121730932287358  0.1685749482232424  0.3435889129703902
  0.3228309482919217  0.1698401577690911  0.1940423268250453
  0.4884532583441207  0.0088555652900518  0.1859675320564060
  0.4673210889208498  0.1748286788889911  0.0016613153102826
  0.0054826623820980  0.8958736071444918  0.8543870953550451
  0.1503276266324560  0.6734140122702384  0.8766349617052783
  0.1589105335384725  0.8230653746564930  0.7044411206407010
  0.0165176155846094  0.8250990377682995  0.5345807776339017
  0.1747355414229575  0.6629052144136598  0.5027149543872781
  0.1030553943973606  0.8229984117884619  0.3310397314239557
  0.0060329868851767  0.8413295576400364  0.1268825073961662
  0.1745372236423956  0.6464421463472618  0.1756947438970376
  0.1790945650251456  0.8770019810702979  0.0187034133796446
  0.0048961654304123  0.4912882904406423  0.8203515780192367
  0.1557642706335634  0.3241364213584303  0.8294912402826662
  0.1680311879019379  0.4993639556455952  0.6634011415613843
  0.0022863193413928  0.4940570066552115  0.4841930007986845
  0.1707043079423002  0.3340929172526889  0.5142219200257808
  0.1419722983370312  0.4923781171906567  0.3171523856229713
  0.9674806015574462  0.4541121579146105  0.1884426480781334
  0.1651491429036109  0.3127896160016267  0.1461390889907179
  0.1601813401922445  0.4763645991161664  0.0005052938870761
  0.0161267858843040  0.1933978991936827  0.8282591882875535
  0.1860893709983845  0.0161634196349294  0.7987088066058777
  0.1442152305327869  0.1624654873157936  0.6405359536804768
  0.9754794153329919  0.1747418984127976  0.5188253945331506
  0.1662624309486821  0.0107165049913893  0.5174829388251477
  0.1596814364717315  0.1646257179404065  0.3398632026358003
  0.0085011179085215  0.1937567618673381  0.1682043762635011
  0.1203113995813741  0.9968810064510863  0.1952407152017978
