Cl O  Li
 1.0000000000000000
    11.7780000000000005    0.0000000000000000    0.0000000000000000
     0.0000000000000000   11.7780000000000005    0.0000000000000000
     0.0000000000000000    0.0000000000000000   11.7780000000000005
 Cl  O   Li 
  27  27  80
Direct
  0.6480221590615577  0.6682531473023019  0.6573974003536706
  0.6948021595613224  0.6800033897690982  0.3328112536794844
  0.6664492553346758  0.6563542828956379  0.0161417898009474
  0.6615367961786893  0.3227373797107448  0.6603807702117100
  0.6784208720229913  0.2948417177038931  0.3385587244153605
  0.6719334899351608  0.3304730686857766  0.9998032112071741
  0.6713509858570298  0.0222390777671360  0.6797617027428742
  0.6900691722275737  0.0048957379628803  0.3654035876073742
  0.6665171088817251  0.9733465991837755  0.9924799433076330
  0.3287889730461452  0.6883524529473356  0.6579478804725438
  0.3249964617851641  0.6552375738334273  0.2867182298581853
  0.3402017088930263  0.6718205596840499  0.9986958526931969
  0.3346887094087833  0.3310577792187490  0.6711863666085153
  0.3504362990681220  0.3515370404360136  0.3485741265810732
  0.3324805744228658  0.3480752949741936  0.0226329636004521
  0.2879568663041349  0.9927228018804072  0.6482032852138798
  0.3195231177599514  0.9893300998571379  0.3060844864282483
  0.3262257405296964  0.0154128327981575  0.9921365814853064
  0.0066551554337390  0.6764894181284631  0.6695939134941697
  0.9947259661898653  0.6759814072046108  0.3434659204680556
  0.0145216477075915  0.6607116870814286  0.9986848843100274
  0.0092467410214169  0.3405608790071563  0.6617191368933095
  0.0012276296641962  0.3711682942567999  0.3333875634898955
  0.9974623997181038  0.3205014312482026  0.9927540725486347
  0.9780419717717954  0.9834764282999905  0.6482575761486014
  0.0009023128691054  0.9937069743621844  0.3416955744624599
  0.9842884871783926  0.9806263566541588  0.0197088390791749
  0.8324109343356469  0.8126033905972030  0.8321512958300172
  0.8412274420569829  0.8240252963894340  0.5146884760629055
  0.8244991135846971  0.8322436726644046  0.1741538713679930
  0.8380703088195064  0.4961650946138821  0.8485350934637642
  0.8432673399219193  0.5138480690524124  0.5114637726762493
  0.8397641374003267  0.4842343277041900  0.1924326898272277
  0.8619094137217871  0.1690857045756704  0.8299939093054519
  0.8570244441591458  0.1634233240501232  0.5068347113898012
  0.8330953806759916  0.1588760938985042  0.1624683043435664
  0.4951803439454514  0.8354254210311206  0.8214913254527447
  0.4994896919496504  0.8515739174623312  0.4875902551755247
  0.4958862880384711  0.8257678694038150  0.1555673030651447
  0.4782230704799885  0.5029804085221783  0.8354012216270622
  0.5013621826445097  0.5093469416613559  0.4955368933790177
  0.4911768227278940  0.5024128840457229  0.1579730675796552
  0.4982987326456208  0.1650623657499504  0.8368269558232994
  0.4939794657159878  0.1742872801653484  0.4957741378812312
  0.4901829868848331  0.1602477699511269  0.1654463604915520
  0.1650871491422824  0.8352534390097208  0.8423456839930481
  0.1577844010197327  0.8434140021193054  0.4849021454121342
  0.1696428407445776  0.8296847518441136  0.1626088696868574
  0.1800364070031317  0.5138025229662366  0.8376764206945354
  0.1748048013606351  0.5149521466667237  0.5170256178075778
  0.1421328832381675  0.4852599445940490  0.1554655935940379
  0.1668968672090389  0.1529040607150765  0.8099380849906874
  0.1776235777845877  0.1702250348606817  0.4881976982661749
  0.1694702109566189  0.1729805528316123  0.1933246036507795
  0.6454819829860661  0.8402242376414223  0.8145834618973392
  0.8379457756985494  0.6706182239798287  0.8556290279632266
  0.8388775878935911  0.8447852429537713  0.6734923750729483
  0.6689613750210830  0.8300276632662548  0.4945505878222047
  0.8348543097959860  0.6807089694934285  0.5335787254256691
  0.8345245156466633  0.8299126847020423  0.3276020971967963
  0.6753580697906613  0.8323785700503048  0.1770401167276007
  0.8418271119489257  0.6881078401005141  0.1728155856572133
  0.8387240672191214  0.8496633299967240  0.0021417079479099
  0.6890012480843334  0.4959024657596400  0.8334882860076790
  0.8450999524879935  0.3311057544295208  0.8317566440539802
  0.8502445144991319  0.5260804117807032  0.6891322128137474
  0.6592672650686069  0.4994333603016273  0.4746273532249741
  0.8785512653584540  0.3530249602219095  0.4851958265757957
  0.8528469166496921  0.5180259204451458  0.3583311508605868
  0.6413306090514296  0.5232679713234053  0.1829777271912319
  0.7934846985089864  0.3273823922487070  0.1889365722523736
  0.8352256419759010  0.4649557422893391  0.0192438489640537
  0.6567119474498000  0.1746632681674058  0.8288397512390525
  0.8085221133499670  0.0161554655287610  0.8416846382196451
  0.8525788222651087  0.1434790370397269  0.6686943681708454
  0.7017326949462912  0.1802310646539946  0.5072194037549943
  0.8441395575935382  0.0080672346646998  0.4923319063869994
  0.8541326522983772  0.1904889136970973  0.3191628730106357
  0.6436549169211528  0.1658508494724732  0.1638413366574219
  0.8563471232509495  0.9941989802648374  0.1749901379955905
  0.8444285424496474  0.1671208261753416  0.0156689771455255
  0.3278072018552448  0.8432072836161824  0.8450824977045892
  0.4799329312831427  0.6718594256775864  0.8217994194223426
  0.4921452337335162  0.8292905858929956  0.6694039154653494
  0.3150739736352501  0.8445160149777100  0.5258361336882434
  0.4692486291744999  0.6744541356002590  0.4886355074892016
  0.5249064323062408  0.8227244191974336  0.3247924704754889
  0.3280458026186911  0.8471325870217470  0.1622601081229806
  0.4841540210936857  0.6576136220570461  0.1364579567851706
  0.5049106478544084  0.8565710316104896  0.9995865842162618
  0.3219863917992732  0.4969432241928143  0.8043234873702149
  0.4827504324166825  0.3407197437557374  0.8289868752187528
  0.4744663888067990  0.5054107476805187  0.6648050967801219
  0.3333848565391525  0.4957200789878871  0.5389908150256515
  0.4993243090500698  0.3277041500441578  0.4827086054164979
  0.4694497606910523  0.5284206709019406  0.3221812222628581
  0.3251232216036676  0.5188459929087698  0.1359841762754175
  0.5050897553079567  0.3336957680446411  0.1902473278843981
  0.5137429448856187  0.4838730359059386  0.0057739039439821
  0.3471665759056190  0.1863707377986067  0.8635520226873182
  0.4739057873354423  0.9914850876211644  0.7914661308833624
  0.5060463850592880  0.1734707096896838  0.6674175393123455
  0.3325122340134343  0.1684740712450919  0.5120314186089344
  0.4617676541560681  0.0114317076033080  0.4870847948324982
  0.4829642358665441  0.1564774446947896  0.3322947610622509
  0.3199829510459823  0.1835094314515184  0.1670333278328514
  0.4877365345333390  0.9827331288252920  0.1793935740924764
  0.5041379433204073  0.1331025758668700  0.0121709441047140
  0.9891346122553711  0.8541250650839148  0.8235355147711343
  0.1769153462659065  0.6802327801017843  0.8649753277589594
  0.1532495290394960  0.8388318634229708  0.6797442940166025
  0.0098214250895853  0.8391100791600377  0.5014054559760065
  0.1734059697192991  0.6682828231077836  0.5367122961545637
  0.1742353335845029  0.8204931063143287  0.3153526088973985
  0.0014989801195026  0.8348169253198120  0.1480517737493341
  0.1571054606951388  0.6279840913989492  0.1439643667623935
  0.1692987957309581  0.8356890620206111  0.0186293892457942
  0.0126075240944603  0.5087422515785810  0.8448007192514485
  0.1754213334258156  0.3400425240610658  0.8240742946065365
  0.1674059408749020  0.5197745257856069  0.6721214176363518
  0.0021641800755156  0.5044796237374458  0.5057712001562439
  0.1495325837961567  0.3357893090777403  0.4908970224881171
  0.1980327587572566  0.5256793633098966  0.3359933259294801
  0.9991452798421674  0.4947188748002183  0.1598550925885539
  0.1660694466435119  0.3296294134708662  0.1261832860542403
  0.1788786052498380  0.5035418197017337  0.9929996361700051
  0.0167936661400467  0.1606814091769304  0.8251068345014942
  0.1718172007772576  0.9877538257247371  0.8409080470862905
  0.1867210744935708  0.1703947496991252  0.6585043524320870
  0.0161857853009015  0.1443351516395446  0.5079758331542020
  0.1830364163646540  0.0047933740830770  0.4551697008419850
  0.1829539678273233  0.2119774154559027  0.3382243959001252
  0.0197721904005847  0.1785341389393143  0.1543172148199063
  0.1701134937564133  0.0097111839553124  0.1960655468741340
