Cl O  Li
 1.0000000000000000
    11.7780000000000005    0.0000000000000000    0.0000000000000000
     0.0000000000000000   11.7780000000000005    0.0000000000000000
     0.0000000000000000    0.0000000000000000   11.7780000000000005
 Cl  O   Li 
  27  27  80
Direct
  0.6539654163363917  0.6584261537733483  0.6618287351093739
  0.6492885822662213  0.7035458071263083  0.3245419914555999
  0.6585242354366044  0.6533217532888645  0.0134118476384393
  0.6591588442373205  0.3094219203494148  0.6461354971128717
  0.7002308472758950  0.3505965943875820  0.3285581238783516
  0.6508846790674611  0.3144337711867894  0.9855469317700946
  0.6542410410072228  0.0083552633458624  0.6424090985263128
  0.6710364942891792  0.0431765955300608  0.3437977430992479
  0.7031580233849462  0.9931363941627265  0.0081636935846322
  0.3505711145797193  0.6744657444518364  0.6688259904499138
  0.3052494390311885  0.6623168826388295  0.3348028769044476
  0.3269272708095504  0.6830872339535199  0.0144092031818262
  0.3216180141508004  0.3537194364828442  0.6475539034499108
  0.3219270392848269  0.3620268401742595  0.3401798049259023
  0.3459626198815176  0.3239380855374946  0.0040015170039732
  0.3519344607592482  0.9881126956496855  0.6708322044537852
  0.3435313900441587  0.9862864076637443  0.3317824831390235
  0.3453220597255413  0.9650024344004187  0.0109162649768211
  0.9884545968987621  0.6642535831938443  0.6899347997916527
  0.9832636639112206  0.6421874558488050  0.3228300861392439
  0.0034495090177417  0.6732164456720917  0.0142098631446635
  0.9996321194723563  0.3124004522009671  0.6627818831154509
  0.0083222779225487  0.3279674769319999  0.3381529231202596
  0.9912380953486335  0.3575830806090794  0.0033434130649279
  0.0029412551814298  0.9815396590861252  0.6758188733661807
  0.9987644522975555  0.9854042558846628  0.2987931695240255
  0.0113217128973176  0.0003990427519055  0.9725514858758022
  0.8174412101965931  0.8290024002840113  0.8216249315169001
  0.8276636142632984  0.8493658327434547  0.4781340417031939
  0.8303660153763955  0.8338354675511171  0.1640389400333304
  0.8182003926036761  0.4986042491305143  0.8456646011399939
  0.8325106894822414  0.5047175865159643  0.5245682158313021
  0.8322308543287773  0.4998608757694569  0.1710986036332836
  0.8247437255280355  0.1523757358970683  0.8337151704563224
  0.8465536207136023  0.1749270808801671  0.5052703188759128
  0.8334153764526274  0.1685020260809300  0.1676788516629177
  0.5110150775461900  0.8519245106512862  0.8166193964034750
  0.5138979626167731  0.8293367287992466  0.4960778636379294
  0.5188563322276250  0.8501798323955885  0.1744498846540986
  0.4697100404880352  0.4893731708114538  0.8411410853172439
  0.5055137581027129  0.4955661834836539  0.4997531696371515
  0.5100784880727759  0.4953043643376104  0.1667008759791985
  0.5141009159767724  0.1545331831497484  0.8207058317405773
  0.4922332076258200  0.1789880508944209  0.4897197514640182
  0.5063208347497481  0.1734175013999566  0.1665571122885228
  0.1626273761874369  0.8244081969355163  0.8394520340147957
  0.1789497979397240  0.8325902173123659  0.4984977980459168
  0.1631378972067052  0.8314363831292459  0.1788112564100630
  0.1343357871141353  0.4964004663261646  0.8623721201115737
  0.1432829918600908  0.5162077102239342  0.5045142133599846
  0.1698859850918060  0.5101155467078798  0.1746267249246905
  0.1834269782108047  0.1551234199411768  0.8329993884086884
  0.1748179177299708  0.1704489694446580  0.4960478639491683
  0.1837638977922758  0.1551328429203389  0.1730455469970117
  0.6562471740402742  0.8779267510063427  0.8246481390183146
  0.8509372189596206  0.6793838715652135  0.8146642749869404
  0.8237028456386315  0.8401179934646816  0.6594350757324337
  0.5152824016948776  0.6615666475073418  0.5073475442888085
  0.8341840324456351  0.6639401856355448  0.5107894923851708
  0.6697370745719362  0.8370707376297661  0.4761080708192746
  0.8148739493818558  0.8637534567549942  0.3255449567586008
  0.8428004612710772  0.6807638572482252  0.1581886667202793
  0.8234350751373276  0.8179117461158606  0.0032293602881752
  0.6527854285784542  0.5193592969602495  0.8515304512145171
  0.8060981699829135  0.3025637931201132  0.8326019026539559
  0.8370809254680555  0.5268469520713206  0.6755791592539614
  0.8278276611443512  0.3504825874732077  0.5148912716926380
  0.9941741134813354  0.1463123473861245  0.5309746270992647
  0.8554483462469308  0.4933456397195917  0.3220904986705689
  0.6907350753466858  0.4887224893029939  0.1505843731431885
  0.8639544928157123  0.3400396593785917  0.1665073455983613
  0.8438175357394400  0.4947937218621124  0.0006700026682662
  0.6792347088300026  0.1456111906928293  0.7955905457463558
  0.8378537919436962  0.9897136266619050  0.8267834205090557
  0.8163867272094509  0.1395407475992044  0.6646368436278089
  0.6882385830285133  0.1826103412493343  0.5117664458122891
  0.8119450728855874  0.9802371776597558  0.5090576480044223
  0.8756891888850941  0.2087983286651682  0.3459814046548602
  0.6804481375365456  0.1934439333071090  0.1579939723839066
  0.8286478955496147  0.9906965263836075  0.1620933630521877
  0.8474944206696495  0.1165651560054068  0.0007793586630281
  0.3196670627314889  0.8531619876913299  0.8255439191985150
  0.4649764863585473  0.6729816707798841  0.8447112507068673
  0.5155023589270493  0.8289866919449569  0.6622087311670147
  0.3359724806116037  0.8458488651824846  0.4770140938081885
  0.4823688160391613  0.5327879835520913  0.6730955817815576
  0.4746913653263196  0.8235583272101811  0.3185356974940155
  0.3472720394950142  0.8143866814729037  0.1499792680849618
  0.5092693871552442  0.6705786187878393  0.1564882390176397
  0.6775297467614502  0.8410974165018058  0.1502359050985337
  0.4867275562434799  0.5070883716362916  0.0183073444299201
  0.5070900980239047  0.3422763568212175  0.7969494790162019
  0.6698547656586145  0.5139600817206261  0.5268239414165972
  0.2993905726898789  0.5230578820701838  0.4870120467622197
  0.4886866452301880  0.3450247493599998  0.5196818697647231
  0.4933372042693112  0.4947612930487553  0.3437715085536107
  0.3318350336579846  0.5165930503556864  0.1827482803418037
  0.4920611851190102  0.3380979791181550  0.1358911753788195
  0.6588828956832100  0.5308185707858498  0.1970351361680172
  0.3389512148902057  0.1933860594136083  0.8021230285808530
  0.5069277920154792  0.9894642213546827  0.9027027138380261
  0.5193235338582637  0.1580230760928251  0.6307305962059198
  0.3367201651622657  0.1559634820759556  0.5100074762068848
  0.4972009293663663  0.0168940531741569  0.4760063309841104
  0.5016492232974592  0.2086597673496690  0.3234468206314742
  0.3319848296747405  0.1877537899116996  0.1895881891366350
  0.5158579827679098  0.9913302824603767  0.1649890111482525
  0.5137269927306217  0.1624169070262040  0.9917704059177628
  0.0036526429806245  0.8154507999876101  0.8087192354505862
  0.1640593755008614  0.6558209986149127  0.8393015092606609
  0.1901221314224168  0.8404047111378343  0.6769923024877091
  0.9916945152085392  0.8368985126959068  0.5137958984414628
  0.1548460601554094  0.6846127241998345  0.4916958038374887
  0.1636140461129394  0.8593179562134404  0.3433271002087647
  0.9846494820236009  0.8320779149350606  0.1739751729799170
  0.1592848298938152  0.6882249944157893  0.1883036275648378
  0.1416816218342073  0.8254153119930356  0.0076750802328145
  0.9697119333024060  0.4969144286052773  0.8501792911433784
  0.1133569258169321  0.4551500036006009  0.7233877320785104
  0.2957530598208302  0.4756174835635748  0.8396106558509171
  0.9930542278225264  0.4946028736396834  0.4582961503501043
  0.1569717263612913  0.3262252480436034  0.5414424537209903
  0.1613504258727073  0.5197782804676571  0.3287964210012235
  0.0034807479395976  0.5352969453765235  0.1586912627205530
  0.1570924842177720  0.3372319354715511  0.1952553570619069
  0.1688097411968245  0.4658705806365447  0.0346235190202991
  0.0358753283523264  0.1905557244051195  0.8499451235323201
  0.1627316362393696  0.9991363249565214  0.8490926627407488
  0.1812208472526790  0.1770720991119974  0.6698790564477081
  0.1428347576440060  0.1058633540783200  0.3308592740935926
  0.1869090878338215  0.0067411334574199  0.5346822404556141
  0.0103032581295097  0.1248493514355775  0.1451245917303036
  0.2045074680082949  0.1741371498042391  0.0023010404341786
  0.2072967508111105  0.9990319320618375  0.1478881156910487
