Cl O  Li
 1.0000000000000000
    11.7780000000000005    0.0000000000000000    0.0000000000000000
     0.0000000000000000   11.7780000000000005    0.0000000000000000
     0.0000000000000000    0.0000000000000000   11.7780000000000005
 Cl  O   Li 
  27  27  80
Direct
  0.6609898010836740  0.6632317092949359  0.6495044961645074
  0.6733682556564168  0.6967148841830143  0.3497794275955670
  0.6882289921684452  0.6459895804851773  0.0110200119734134
  0.6366405800162245  0.3398703677274843  0.6872847924629848
  0.6708905485684534  0.3360036669527991  0.3472081587252461
  0.6668184855518777  0.3267781958630144  0.0054295025392671
  0.6682702518667026  0.0106791435767287  0.7003074103931879
  0.6677475447390442  0.0099031957818412  0.3301009475440925
  0.6591897387871867  0.9841210195657419  0.9944910127843535
  0.3402922375482426  0.6855145145539424  0.6559317169331760
  0.3698439552484462  0.6571249305458954  0.3124312725627254
  0.3169798073437937  0.6734904692597622  0.0183652356168292
  0.3224109655718551  0.3323095959660726  0.6530533257430956
  0.3591145119077268  0.3201797622957348  0.3311944382237060
  0.3311444984455312  0.3369493454007433  0.9847836938343019
  0.3428303488678273  0.9837399708874429  0.6459197155418979
  0.3133953910898735  0.9719136993511287  0.3501569945286117
  0.3441791607851898  0.0050496365714634  0.9738453318614633
  0.9859819913590299  0.6426522466880845  0.6894267945317748
  0.9777454017102654  0.6501258533619083  0.3213405728436302
  0.0250879899968117  0.6662825278459255  0.0010058490407955
  0.9682456698018970  0.3384020833654065  0.6623154968569854
  0.0119229785540252  0.3495632631176624  0.3537220992419934
  0.0177209788770061  0.3434104524575267  0.0125744657350287
  0.9877619741573590  0.0130664707825214  0.6512137496865127
  0.9962249964898386  0.9908788454571011  0.3414852221477900
  0.0132118454961350  0.0103461561406974  0.9764747807961974
  0.8266292567069801  0.8194387121701696  0.8467289682311342
  0.8225169107075200  0.8347183917041956  0.5174216559629000
  0.8407300011037268  0.8462614298429494  0.1618673892792629
  0.8233668614036752  0.4835796460123096  0.8306475966095945
  0.8147947236167014  0.4960982610742439  0.5051032412530895
  0.8285411397057052  0.5017436276062663  0.1820985761471567
  0.8468924472914268  0.1697011615282982  0.8386103480062412
  0.8388348790647145  0.1738561184217139  0.4883336581480809
  0.8322265265720010  0.1945146895195765  0.1670262932468703
  0.4923680282229869  0.8294127787323398  0.8273094935897131
  0.4997985989060507  0.8442819362096344  0.5011683832907802
  0.4980156619379655  0.8389982663299627  0.1622682656870772
  0.5080761648503447  0.5053026190227481  0.8207516668885972
  0.4815903667590361  0.5106881097084038  0.4996944714567216
  0.4999001363141653  0.4926643290890487  0.1547526655217994
  0.4920292463126588  0.1578668915931839  0.8130798436477362
  0.5155695688896262  0.1740574321226109  0.4858482588322302
  0.4925111846325136  0.1757784264134970  0.1557006111527000
  0.1812758913495709  0.8441985362651703  0.8171204495007933
  0.1476291554053590  0.8207786172973466  0.5117341036337264
  0.1639366684054379  0.8199940910236447  0.1763037577243628
  0.1727070126380965  0.4886010514064286  0.8332606869083771
  0.1600578118864199  0.5044455024090344  0.5096514126904894
  0.1753127750776811  0.4929697915070010  0.2013272228088539
  0.1746378428086708  0.1614040208883011  0.8014794781685158
  0.1739414735151003  0.1593644469066441  0.4895239292001416
  0.1798707642269901  0.1749895277155223  0.1908210565039208
  0.6813718973170971  0.8419319201046033  0.8469156059709303
  0.8295573234950497  0.6663779114717302  0.8549845910832441
  0.8228684860073874  0.8659023596767100  0.6954708613808277
  0.6540648526852764  0.8279602431947263  0.4857884213963477
  0.8110974340398849  0.6548511484677698  0.5051664794634065
  0.8398982688420419  0.8146262114913104  0.3207312876668278
  0.6819830650654612  0.8620964072596308  0.1586866125623851
  0.8389824888693340  0.6669432497360490  0.1490129983486881
  0.8897162135324372  0.8554693505075276  0.9873919385355830
  0.6714767773042983  0.5058246378984375  0.8283094022442640
  0.8427915991483880  0.3277753312669849  0.8221016123974377
  0.8148965849080952  0.4945248361025675  0.6650908931641936
  0.6583399095472614  0.4823640715790401  0.5191370632672153
  0.8243836929595786  0.3378103486138105  0.4727722406463240
  0.8204179041440798  0.5236623475737360  0.3493499178815767
  0.6617611291137373  0.4796028856507187  0.1411831909169121
  0.8075708309513505  0.3399723099896982  0.2008663571448698
  0.8470801376518809  0.4885023479770095  0.0175311767092421
  0.6419854638357163  0.1783480961101254  0.8388573090068391
  0.8141708434496177  0.0092337189218194  0.8827213883415145
  0.8145199896248888  0.1636148582753317  0.6491366862152566
  0.6836507400714642  0.1586050823152163  0.4756824533686126
  0.8199698116269299  0.9953849822850525  0.5029150858169744
  0.8286526365246637  0.1433764346404122  0.3228034726461868
  0.6607079011743033  0.1646988956117255  0.1722678279361532
  0.8363550667354347  0.0184034801897812  0.1546246000488255
  0.8581229380654898  0.2018573056495586  0.0142029179698199
  0.3416335191793573  0.8417469017812047  0.7698524378696834
  0.5282660363574010  0.6819229728678738  0.7922575495521004
  0.5252468773969797  0.8395663576021571  0.6418130374998285
  0.3326497257441739  0.8300583590791478  0.5335273593158102
  0.4872452068769830  0.6760213336909688  0.5081196067202252
  0.5313320774225256  0.8460043474898682  0.3316649596579594
  0.3268997853982918  0.8043788684120855  0.1730928193770841
  0.5214592243851907  0.6779106258309507  0.1604778591608592
  0.4678020077853404  0.8416225306018872  0.9838982412291416
  0.3269856549527619  0.4817135115268099  0.8139793484856507
  0.4558761396102504  0.3258151086887985  0.8323627205160402
  0.4930779803715901  0.4973706365376510  0.6695431141800499
  0.3308734283833178  0.5069547476313364  0.4994967002291938
  0.4891421912448524  0.3354548669784382  0.5017894699645783
  0.4738746573338067  0.5197278539801160  0.3051257005828328
  0.3337108483385450  0.5210003104143430  0.1659177015093515
  0.4757345165807666  0.3154196092519201  0.1415566182167912
  0.4869977195660563  0.5008982922468436  0.9779373655716580
  0.3197722884939941  0.1457738996458861  0.8301918118645569
  0.4927682265001849  0.9802169406363351  0.8199449546102514
  0.4697161174816119  0.1280353691035737  0.6630295785174020
  0.3360718359896684  0.1479664275062740  0.4634483697676946
  0.5141213248054659  0.0111532441742541  0.4900674053430963
  0.5136043261206081  0.1889821963104501  0.3167349526095338
  0.3207202543675997  0.1751191417554261  0.1772574927688839
  0.4889723954355891  0.0079044760068992  0.1221375686721742
  0.4557899056870909  0.1836359562297253  0.9814808396896133
  0.0058801148807488  0.8619495261923901  0.8159467774668053
  0.1812531790345979  0.6323148235717565  0.8333104029917761
  0.1361639909526133  0.7966067223254081  0.6715033772436462
  0.9865244806701173  0.7948205870099381  0.5157319973793029
  0.1467114422543266  0.6644036809417065  0.5264505906301599
  0.1697967999158079  0.8146617576812325  0.3420437183778301
  0.9921279966747895  0.8461894467840868  0.1985567252362477
  0.1416103818161624  0.6664587608353685  0.1492912039644023
  0.2110185584857284  0.8126314143730402  0.9704728111824615
  0.9832232181081069  0.4861266641220800  0.8115158922619844
  0.1810555090205949  0.3192172216745530  0.8032141160425497
  0.1578582699287610  0.5053218091070568  0.6648484260440987
  0.0020353998977036  0.4990645056038813  0.5122023983704334
  0.1842963458431099  0.3334182889171162  0.4763723247538886
  0.1482890169805214  0.5117530379313088  0.3468696197273777
  0.9970720270176563  0.4878448244342706  0.2163414597526474
  0.2196356958058442  0.3479330776012584  0.1670563637850989
  0.1477180512442216  0.4872302559114719  0.0010624663051269
  0.0129553375298073  0.1730186777172283  0.8131791138728944
  0.1636529972593825  0.0043429434983597  0.8167252309290171
  0.2091102179603725  0.1221276166297687  0.6454682627357232
  0.9996788019878546  0.1529572562945404  0.4859779740856588
  0.1363405275826307  0.9917532430150111  0.4909842784218725
  0.1691997818182156  0.1661728985379566  0.3360887396733371
  0.0318077052005632  0.2093590091978767  0.1853675705722808
  0.1875662107045475  0.9942585320536610  0.1748093805155825
