Cl O  Li
 1.0000000000000000
    11.7780000000000005    0.0000000000000000    0.0000000000000000
     0.0000000000000000   11.7780000000000005    0.0000000000000000
     0.0000000000000000    0.0000000000000000   11.7780000000000005
 Cl  O   Li 
  27  27  80
Direct
  0.6915195109587240  0.6447374504942947  0.6668023933804452
  0.6557074128641901  0.6751018318281042  0.3232419496324723
  0.6907713405831429  0.6648657841782510  0.9978110432507861
  0.6410131928432202  0.3414704348664548  0.6505497279894743
  0.6395517910008313  0.3347612332175956  0.3397429120425686
  0.6683551358984041  0.3322962992764665  0.9947446289607885
  0.6681696317500863  0.9986539990878543  0.6738509032499614
  0.6319342182092820  0.0090788820761613  0.3270762418365055
  0.6621595321599681  0.9947767524964658  0.9848213817094382
  0.3449878429756921  0.6692102735182729  0.6520764327980870
  0.3536292917844733  0.6685303615438407  0.3490412366275295
  0.3178137321873898  0.6743123258489806  0.9840536125999418
  0.3526070351836387  0.3087162605123537  0.6903074531653601
  0.3514848201056770  0.3530766707301156  0.3444967493624335
  0.3519629527969980  0.3446347340214894  0.0072453735097440
  0.3486280481245013  0.0112653270037066  0.6781802510466681
  0.3386139414919066  0.0018145601427537  0.3058963401149222
  0.3399935223208189  0.9767838590819675  0.9964097407342750
  0.0101196262293257  0.6570453389975224  0.6609582030002366
  0.9785919377590560  0.6612128261253126  0.3555289425986395
  0.0085191063970508  0.6710507402538745  0.0093778412644948
  0.9651714722357690  0.3364505881606183  0.6449322154194866
  0.9801512510350324  0.3316007194483898  0.3248631069024611
  0.0144413343026607  0.3458315637099596  0.9813166255602395
  0.0062008700736486  0.0100630052163451  0.6702866082447785
  0.0020426849432292  0.9997892542633219  0.3241051593003810
  0.0499872800471193  0.9757151049878238  0.0249082836321450
  0.8426283076171938  0.8283844520875723  0.8404873525783033
  0.8140256893820739  0.8452753699661534  0.5029229194977917
  0.8306379056986690  0.8406923405908000  0.1778974049122963
  0.8473592706804461  0.5104149169297262  0.8476738367248747
  0.8280441674258346  0.4947927308276583  0.4658997813359007
  0.7992969353064303  0.4995847458890911  0.1733711158389657
  0.8309115870698229  0.1527861778410689  0.8211176749911009
  0.8305692424434209  0.1572152108383855  0.4695373954184742
  0.8097480009684433  0.1643251978028867  0.1408533357934694
  0.5070547850555985  0.8355910169974712  0.8360543621321657
  0.4991919516506689  0.8477465184177073  0.5040274019662022
  0.4898561375761090  0.8269537786713234  0.1766660209264475
  0.5099573460354097  0.5226784739090761  0.8565808698228233
  0.5066079071007467  0.5043548178583395  0.5069549829293526
  0.5042155432569243  0.4848754248102158  0.1689193401626186
  0.5031662019168439  0.1893308391856544  0.8455868948135948
  0.4952314259384615  0.1727973062632663  0.4932895781456266
  0.4795733292777820  0.1646545466127002  0.1590615274550742
  0.1819123890916237  0.8117796041155854  0.8163310040037794
  0.1620050551391447  0.8428339378054910  0.5019113915305896
  0.1568033580932369  0.8131382944729717  0.1948270268427742
  0.1656322543500127  0.4971470788715526  0.8353699157918207
  0.1762417394210974  0.4747113602192253  0.4899884787904247
  0.1785741038873975  0.4990680306021029  0.1794548381470489
  0.1738728571150369  0.1648976614993540  0.8381588747113567
  0.1463469281144078  0.1724150025372591  0.5099997691542618
  0.1664070641253303  0.1887089832890676  0.1844315476486007
  0.6659791281601951  0.8326364727513048  0.8513421387481784
  0.8380316751441027  0.6601885857393913  0.8559110792008744
  0.8321923025276764  0.8202082616097531  0.6879520929862174
  0.6592680236970689  0.8289267946390487  0.5227414993103427
  0.1333862627398437  0.4714666570400617  0.3319160499243653
  0.8000621905250037  0.6755174955318971  0.4699536259180060
  0.6594474550338966  0.8245068404949100  0.1753847589155600
  0.9219245699595825  0.6197432158757759  0.1793641710715016
  0.8151663253215555  0.8256260191671264  0.0178061989135952
  0.6421997392375670  0.5404351317936865  0.8309254274892617
  0.8352174533287677  0.3292259262724788  0.8501577785659679
  0.8522262647210765  0.4970920187140423  0.6742598868611153
  0.6607332716534018  0.4703705550515075  0.5067725961575996
  0.8031869354345327  0.3163238941357642  0.4563256701384691
  0.8573187624950399  0.7800456823345272  0.6426896880778302
  0.6539817627511615  0.4739302347199580  0.1298074584887056
  0.8383790399613368  0.3267665995606256  0.1622456644609765
  0.8306278653170054  0.4969070003906437  0.0118353056474910
  0.6802111262559479  0.1459987482588646  0.8541259155352429
  0.8234736885275610  0.9993733806996113  0.8146240581501403
  0.8160170857259095  0.1838551672493705  0.6307241846864147
  0.6697448785652099  0.1653173939868452  0.4559842566764953
  0.8409106736153322  0.0017983006644273  0.4921276873659295
  0.8524048053788859  0.1641263638333482  0.3136978381238019
  0.6368078518571417  0.1562254032936131  0.1090305789016634
  0.8474544923646110  0.0082426660553262  0.1605665725693721
  0.8629442102053746  0.1388679619150098  0.9829946800132143
  0.3322914362360324  0.8158467683975590  0.8210162185538060
  0.4927267960528920  0.6823381939997145  0.8179948733812484
  0.5167044420279671  0.8743084290796920  0.6675504018143864
  0.3399751014592989  0.8539011104358799  0.5168167834497754
  0.4928333131664286  0.6544843939067347  0.5143060402673061
  0.4960476118027317  0.8103764607780916  0.3369613417103454
  0.1518130556152997  0.8001926797924632  0.0429404346100040
  0.4934523755697299  0.6667239835234036  0.1714309740241066
  0.4766023074697726  0.8076155177622297  0.0058269355434784
  0.3394062814497257  0.4936002735634610  0.8792164244585849
  0.5345564430529721  0.3478625142993007  0.8231234841408728
  0.4736808398035222  0.5228862045474477  0.6714751789096221
  0.3499939448848560  0.4909978714129010  0.4793947830292142
  0.5142912686834387  0.3316272373918965  0.4900213124578812
  0.4973690150975689  0.5022755276895371  0.3484939548560411
  0.3331599899780524  0.4822110394970467  0.1667904047598846
  0.4873267306196600  0.3235067548381467  0.1633899036019423
  0.5006076454652424  0.4975336335656027  0.0103841940576550
  0.3480321028902723  0.1712928279447074  0.8431025481184026
  0.5270023918696094  0.0202519076063301  0.8417669344446784
  0.4840913390847812  0.1604741345177885  0.6560292662824070
  0.1678811682650862  0.3230989453038811  0.4707123629855799
  0.5068011439623618  0.0103641622639848  0.4699990100625421
  0.5064327672173720  0.1795848674230528  0.3211907765808691
  0.3275350280926367  0.1655634339443669  0.1446795207941632
  0.4893165480325081  0.9913312948211299  0.1929342732002428
  0.4532889865863051  0.1948698505457801  0.0166831576802371
  0.9909103929542764  0.8430919918084104  0.8724478307133523
  0.1865448511525063  0.6576012441613267  0.7833111846323961
  0.1446085453399550  0.8455066226276966  0.6617979918584985
  0.9918868061542060  0.8021078016239829  0.4700941102904772
  0.1702642103432712  0.6483852264147616  0.5060195270474166
  0.1617687721654171  0.8060505947266392  0.3340526876763393
  0.8058667965385616  0.8420777513187429  0.3487022118047419
  0.3247622835797791  0.8133663083017204  0.1908035260754143
  0.9920519676492009  0.8425689203120628  0.1877476468481831
  0.9975929384399090  0.4980550046747333  0.8053124948361309
  0.1791339766213753  0.3202484485612452  0.8214962135739839
  0.1516241304498425  0.4553552857297608  0.6710403251215207
  0.9827907112525419  0.4888313351856907  0.4575170747820080
  0.1672431384472307  0.1695957301670349  0.6842000671351705
  0.1491107051089650  0.6515375823738656  0.2204131176691187
  0.8131341098060665  0.4824866236824678  0.3018994382618891
  0.1409511035278663  0.1541829953332606  0.3451142328347475
  0.1659229193506341  0.5371264211814173  0.0155516714434006
  0.1563621784598332  0.3477567259231430  0.1650149168643148
  0.1920845507646009  0.9967476306447713  0.8577594001060033
  0.0012672667797396  0.1708753626401726  0.8154946564053620
  0.9798959778737076  0.1886506033279426  0.5104155947996943
  0.1605614567557741  0.0234772916539409  0.5044049284138372
  0.3353895822312348  0.1910531694950684  0.5083184100797011
  0.1324322951471278  0.1863800398399069  0.9919318127482797
  0.1758385047381544  0.0157259588634767  0.1770603893046150
